3072 64512
13 14 15 22 23 24 37 38 39 46 47 48 49 50 51 58 59 60 145 146 147 154 155 156 193 194 195 199 200 201 577 578 579 583 584 585 769 770 771 2305 2306 2307
13 14 15 22 23 24 37 38 39 46 47 48 49 50 51 58 59 60 145 146 147 154 155 156 193 194 195 199 200 201 577 578 579 583 584 585 769 770 771 2305 2306 2307
13 14 15 22 23 24 37 38 39 46 47 48 49 50 51 58 59 60 145 146 147 154 155 156 193 194 195 199 200 201 577 578 579 583 584 585 769 770 771 2305 2306 2307
16 17 18 19 20 21 40 41 42 43 44 45 52 53 54 55 56 57 148 149 150 151 152 153 196 197 198 202 203 204 580 581 582 586 587 588 772 773 774 2308 2309 2310
16 17 18 19 20 21 40 41 42 43 44 45 52 53 54 55 56 57 148 149 150 151 152 153 196 197 198 202 203 204 580 581 582 586 587 588 772 773 774 2308 2309 2310
16 17 18 19 20 21 40 41 42 43 44 45 52 53 54 55 56 57 148 149 150 151 152 153 196 197 198 202 203 204 580 581 582 586 587 588 772 773 774 2308 2309 2310
16 17 18 19 20 21 40 41 42 43 44 45 52 53 54 55 56 57 148 149 150 151 152 153 193 194 195 199 200 201 577 578 579 583 584 585 775 776 777 2311 2312 2313
16 17 18 19 20 21 40 41 42 43 44 45 52 53 54 55 56 57 148 149 150 151 152 153 193 194 195 199 200 201 577 578 579 583 584 585 775 776 777 2311 2312 2313
16 17 18 19 20 21 40 41 42 43 44 45 52 53 54 55 56 57 148 149 150 151 152 153 193 194 195 199 200 201 577 578 579 583 584 585 775 776 777 2311 2312 2313
13 14 15 22 23 24 37 38 39 46 47 48 49 50 51 58 59 60 145 146 147 154 155 156 196 197 198 202 203 204 580 581 582 586 587 588 778 779 780 2314 2315 2316
13 14 15 22 23 24 37 38 39 46 47 48 49 50 51 58 59 60 145 146 147 154 155 156 196 197 198 202 203 204 580 581 582 586 587 588 778 779 780 2314 2315 2316
13 14 15 22 23 24 37 38 39 46 47 48 49 50 51 58 59 60 145 146 147 154 155 156 196 197 198 202 203 204 580 581 582 586 587 588 778 779 780 2314 2315 2316
1 2 3 10 11 12 25 26 27 34 35 36 61 62 63 70 71 72 157 158 159 166 167 168 205 206 207 211 212 213 589 590 591 595 596 597 781 782 783 2317 2318 2319
1 2 3 10 11 12 25 26 27 34 35 36 61 62 63 70 71 72 157 158 159 166 167 168 205 206 207 211 212 213 589 590 591 595 596 597 781 782 783 2317 2318 2319
1 2 3 10 11 12 25 26 27 34 35 36 61 62 63 70 71 72 157 158 159 166 167 168 205 206 207 211 212 213 589 590 591 595 596 597 781 782 783 2317 2318 2319
4 5 6 7 8 9 28 29 30 31 32 33 64 65 66 67 68 69 160 161 162 163 164 165 208 209 210 214 215 216 592 593 594 598 599 600 784 785 786 2320 2321 2322
4 5 6 7 8 9 28 29 30 31 32 33 64 65 66 67 68 69 160 161 162 163 164 165 208 209 210 214 215 216 592 593 594 598 599 600 784 785 786 2320 2321 2322
4 5 6 7 8 9 28 29 30 31 32 33 64 65 66 67 68 69 160 161 162 163 164 165 208 209 210 214 215 216 592 593 594 598 599 600 784 785 786 2320 2321 2322
4 5 6 7 8 9 28 29 30 31 32 33 64 65 66 67 68 69 160 161 162 163 164 165 205 206 207 211 212 213 589 590 591 595 596 597 787 788 789 2323 2324 2325
4 5 6 7 8 9 28 29 30 31 32 33 64 65 66 67 68 69 160 161 162 163 164 165 205 206 207 211 212 213 589 590 591 595 596 597 787 788 789 2323 2324 2325
4 5 6 7 8 9 28 29 30 31 32 33 64 65 66 67 68 69 160 161 162 163 164 165 205 206 207 211 212 213 589 590 591 595 596 597 787 788 789 2323 2324 2325
1 2 3 10 11 12 25 26 27 34 35 36 61 62 63 70 71 72 157 158 159 166 167 168 208 209 210 214 215 216 592 593 594 598 599 600 790 791 792 2326 2327 2328
1 2 3 10 11 12 25 26 27 34 35 36 61 62 63 70 71 72 157 158 159 166 167 168 208 209 210 214 215 216 592 593 594 598 599 600 790 791 792 2326 2327 2328
1 2 3 10 11 12 25 26 27 34 35 36 61 62 63 70 71 72 157 158 159 166 167 168 208 209 210 214 215 216 592 593 594 598 599 600 790 791 792 2326 2327 2328
13 14 15 22 23 24 37 38 39 46 47 48 73 74 75 82 83 84 169 170 171 178 179 180 217 218 219 223 224 225 601 602 603 607 608 609 793 794 795 2329 2330 2331
13 14 15 22 23 24 37 38 39 46 47 48 73 74 75 82 83 84 169 170 171 178 179 180 217 218 219 223 224 225 601 602 603 607 608 609 793 794 795 2329 2330 2331
13 14 15 22 23 24 37 38 39 46 47 48 73 74 75 82 83 84 169 170 171 178 179 180 217 218 219 223 224 225 601 602 603 607 608 609 793 794 795 2329 2330 2331
16 17 18 19 20 21 40 41 42 43 44 45 76 77 78 79 80 81 172 173 174 175 176 177 220 221 222 226 227 228 604 605 606 610 611 612 796 797 798 2332 2333 2334
16 17 18 19 20 21 40 41 42 43 44 45 76 77 78 79 80 81 172 173 174 175 176 177 220 221 222 226 227 228 604 605 606 610 611 612 796 797 798 2332 2333 2334
16 17 18 19 20 21 40 41 42 43 44 45 76 77 78 79 80 81 172 173 174 175 176 177 220 221 222 226 227 228 604 605 606 610 611 612 796 797 798 2332 2333 2334
16 17 18 19 20 21 40 41 42 43 44 45 76 77 78 79 80 81 172 173 174 175 176 177 217 218 219 223 224 225 601 602 603 607 608 609 799 800 801 2335 2336 2337
16 17 18 19 20 21 40 41 42 43 44 45 76 77 78 79 80 81 172 173 174 175 176 177 217 218 219 223 224 225 601 602 603 607 608 609 799 800 801 2335 2336 2337
16 17 18 19 20 21 40 41 42 43 44 45 76 77 78 79 80 81 172 173 174 175 176 177 217 218 219 223 224 225 601 602 603 607 608 609 799 800 801 2335 2336 2337
13 14 15 22 23 24 37 38 39 46 47 48 73 74 75 82 83 84 169 170 171 178 179 180 220 221 222 226 227 228 604 605 606 610 611 612 802 803 804 2338 2339 2340
13 14 15 22 23 24 37 38 39 46 47 48 73 74 75 82 83 84 169 170 171 178 179 180 220 221 222 226 227 228 604 605 606 610 611 612 802 803 804 2338 2339 2340
13 14 15 22 23 24 37 38 39 46 47 48 73 74 75 82 83 84 169 170 171 178 179 180 220 221 222 226 227 228 604 605 606 610 611 612 802 803 804 2338 2339 2340
1 2 3 10 11 12 25 26 27 34 35 36 85 86 87 94 95 96 181 182 183 190 191 192 229 230 231 235 236 237 613 614 615 619 620 621 805 806 807 2341 2342 2343
1 2 3 10 11 12 25 26 27 34 35 36 85 86 87 94 95 96 181 182 183 190 191 192 229 230 231 235 236 237 613 614 615 619 620 621 805 806 807 2341 2342 2343
1 2 3 10 11 12 25 26 27 34 35 36 85 86 87 94 95 96 181 182 183 190 191 192 229 230 231 235 236 237 613 614 615 619 620 621 805 806 807 2341 2342 2343
4 5 6 7 8 9 28 29 30 31 32 33 88 89 90 91 92 93 184 185 186 187 188 189 232 233 234 238 239 240 616 617 618 622 623 624 808 809 810 2344 2345 2346
4 5 6 7 8 9 28 29 30 31 32 33 88 89 90 91 92 93 184 185 186 187 188 189 232 233 234 238 239 240 616 617 618 622 623 624 808 809 810 2344 2345 2346
4 5 6 7 8 9 28 29 30 31 32 33 88 89 90 91 92 93 184 185 186 187 188 189 232 233 234 238 239 240 616 617 618 622 623 624 808 809 810 2344 2345 2346
4 5 6 7 8 9 28 29 30 31 32 33 88 89 90 91 92 93 184 185 186 187 188 189 229 230 231 235 236 237 613 614 615 619 620 621 811 812 813 2347 2348 2349
4 5 6 7 8 9 28 29 30 31 32 33 88 89 90 91 92 93 184 185 186 187 188 189 229 230 231 235 236 237 613 614 615 619 620 621 811 812 813 2347 2348 2349
4 5 6 7 8 9 28 29 30 31 32 33 88 89 90 91 92 93 184 185 186 187 188 189 229 230 231 235 236 237 613 614 615 619 620 621 811 812 813 2347 2348 2349
1 2 3 10 11 12 25 26 27 34 35 36 85 86 87 94 95 96 181 182 183 190 191 192 232 233 234 238 239 240 616 617 618 622 623 624 814 815 816 2350 2351 2352
1 2 3 10 11 12 25 26 27 34 35 36 85 86 87 94 95 96 181 182 183 190 191 192 232 233 234 238 239 240 616 617 618 622 623 624 814 815 816 2350 2351 2352
1 2 3 10 11 12 25 26 27 34 35 36 85 86 87 94 95 96 181 182 183 190 191 192 232 233 234 238 239 240 616 617 618 622 623 624 814 815 816 2350 2351 2352
1 2 3 10 11 12 61 62 63 70 71 72 85 86 87 94 95 96 97 98 99 106 107 108 241 242 243 247 248 249 625 626 627 631 632 633 817 818 819 2353 2354 2355
1 2 3 10 11 12 61 62 63 70 71 72 85 86 87 94 95 96 97 98 99 106 107 108 241 242 243 247 248 249 625 626 627 631 632 633 817 818 819 2353 2354 2355
1 2 3 10 11 12 61 62 63 70 71 72 85 86 87 94 95 96 97 98 99 106 107 108 241 242 243 247 248 249 625 626 627 631 632 633 817 818 819 2353 2354 2355
4 5 6 7 8 9 64 65 66 67 68 69 88 89 90 91 92 93 100 101 102 103 104 105 244 245 246 250 251 252 628 629 630 634 635 636 820 821 822 2356 2357 2358
4 5 6 7 8 9 64 65 66 67 68 69 88 89 90 91 92 93 100 101 102 103 104 105 244 245 246 250 251 252 628 629 630 634 635 636 820 821 822 2356 2357 2358
4 5 6 7 8 9 64 65 66 67 68 69 88 89 90 91 92 93 100 101 102 103 104 105 244 245 246 250 251 252 628 629 630 634 635 636 820 821 822 2356 2357 2358
4 5 6 7 8 9 64 65 66 67 68 69 88 89 90 91 92 93 100 101 102 103 104 105 241 242 243 247 248 249 625 626 627 631 632 633 823 824 825 2359 2360 2361
4 5 6 7 8 9 64 65 66 67 68 69 88 89 90 91 92 93 100 101 102 103 104 105 241 242 243 247 248 249 625 626 627 631 632 633 823 824 825 2359 2360 2361
4 5 6 7 8 9 64 65 66 67 68 69 88 89 90 91 92 93 100 101 102 103 104 105 241 242 243 247 248 249 625 626 627 631 632 633 823 824 825 2359 2360 2361
1 2 3 10 11 12 61 62 63 70 71 72 85 86 87 94 95 96 97 98 99 106 107 108 244 245 246 250 251 252 628 629 630 634 635 636 826 827 828 2362 2363 2364
1 2 3 10 11 12 61 62 63 70 71 72 85 86 87 94 95 96 97 98 99 106 107 108 244 245 246 250 251 252 628 629 630 634 635 636 826 827 828 2362 2363 2364
1 2 3 10 11 12 61 62 63 70 71 72 85 86 87 94 95 96 97 98 99 106 107 108 244 245 246 250 251 252 628 629 630 634 635 636 826 827 828 2362 2363 2364
13 14 15 22 23 24 49 50 51 58 59 60 73 74 75 82 83 84 109 110 111 118 119 120 253 254 255 259 260 261 637 638 639 643 644 645 829 830 831 2365 2366 2367
13 14 15 22 23 24 49 50 51 58 59 60 73 74 75 82 83 84 109 110 111 118 119 120 253 254 255 259 260 261 637 638 639 643 644 645 829 830 831 2365 2366 2367
13 14 15 22 23 24 49 50 51 58 59 60 73 74 75 82 83 84 109 110 111 118 119 120 253 254 255 259 260 261 637 638 639 643 644 645 829 830 831 2365 2366 2367
16 17 18 19 20 21 52 53 54 55 56 57 76 77 78 79 80 81 112 113 114 115 116 117 256 257 258 262 263 264 640 641 642 646 647 648 832 833 834 2368 2369 2370
16 17 18 19 20 21 52 53 54 55 56 57 76 77 78 79 80 81 112 113 114 115 116 117 256 257 258 262 263 264 640 641 642 646 647 648 832 833 834 2368 2369 2370
16 17 18 19 20 21 52 53 54 55 56 57 76 77 78 79 80 81 112 113 114 115 116 117 256 257 258 262 263 264 640 641 642 646 647 648 832 833 834 2368 2369 2370
16 17 18 19 20 21 52 53 54 55 56 57 76 77 78 79 80 81 112 113 114 115 116 117 253 254 255 259 260 261 637 638 639 643 644 645 835 836 837 2371 2372 2373
16 17 18 19 20 21 52 53 54 55 56 57 76 77 78 79 80 81 112 113 114 115 116 117 253 254 255 259 260 261 637 638 639 643 644 645 835 836 837 2371 2372 2373
16 17 18 19 20 21 52 53 54 55 56 57 76 77 78 79 80 81 112 113 114 115 116 117 253 254 255 259 260 261 637 638 639 643 644 645 835 836 837 2371 2372 2373
13 14 15 22 23 24 49 50 51 58 59 60 73 74 75 82 83 84 109 110 111 118 119 120 256 257 258 262 263 264 640 641 642 646 647 648 838 839 840 2374 2375 2376
13 14 15 22 23 24 49 50 51 58 59 60 73 74 75 82 83 84 109 110 111 118 119 120 256 257 258 262 263 264 640 641 642 646 647 648 838 839 840 2374 2375 2376
13 14 15 22 23 24 49 50 51 58 59 60 73 74 75 82 83 84 109 110 111 118 119 120 256 257 258 262 263 264 640 641 642 646 647 648 838 839 840 2374 2375 2376
25 26 27 34 35 36 61 62 63 70 71 72 85 86 87 94 95 96 121 122 123 130 131 132 265 266 267 271 272 273 649 650 651 655 656 657 841 842 843 2377 2378 2379
25 26 27 34 35 36 61 62 63 70 71 72 85 86 87 94 95 96 121 122 123 130 131 132 265 266 267 271 272 273 649 650 651 655 656 657 841 842 843 2377 2378 2379
25 26 27 34 35 36 61 62 63 70 71 72 85 86 87 94 95 96 121 122 123 130 131 132 265 266 267 271 272 273 649 650 651 655 656 657 841 842 843 2377 2378 2379
28 29 30 31 32 33 64 65 66 67 68 69 88 89 90 91 92 93 124 125 126 127 128 129 268 269 270 274 275 276 652 653 654 658 659 660 844 845 846 2380 2381 2382
28 29 30 31 32 33 64 65 66 67 68 69 88 89 90 91 92 93 124 125 126 127 128 129 268 269 270 274 275 276 652 653 654 658 659 660 844 845 846 2380 2381 2382
28 29 30 31 32 33 64 65 66 67 68 69 88 89 90 91 92 93 124 125 126 127 128 129 268 269 270 274 275 276 652 653 654 658 659 660 844 845 846 2380 2381 2382
28 29 30 31 32 33 64 65 66 67 68 69 88 89 90 91 92 93 124 125 126 127 128 129 265 266 267 271 272 273 649 650 651 655 656 657 847 848 849 2383 2384 2385
28 29 30 31 32 33 64 65 66 67 68 69 88 89 90 91 92 93 124 125 126 127 128 129 265 266 267 271 272 273 649 650 651 655 656 657 847 848 849 2383 2384 2385
28 29 30 31 32 33 64 65 66 67 68 69 88 89 90 91 92 93 124 125 126 127 128 129 265 266 267 271 272 273 649 650 651 655 656 657 847 848 849 2383 2384 2385
25 26 27 34 35 36 61 62 63 70 71 72 85 86 87 94 95 96 121 122 123 130 131 132 268 269 270 274 275 276 652 653 654 658 659 660 850 851 852 2386 2387 2388
25 26 27 34 35 36 61 62 63 70 71 72 85 86 87 94 95 96 121 122 123 130 131 132 268 269 270 274 275 276 652 653 654 658 659 660 850 851 852 2386 2387 2388
25 26 27 34 35 36 61 62 63 70 71 72 85 86 87 94 95 96 121 122 123 130 131 132 268 269 270 274 275 276 652 653 654 658 659 660 850 851 852 2386 2387 2388
37 38 39 46 47 48 49 50 51 58 59 60 73 74 75 82 83 84 133 134 135 142 143 144 277 278 279 283 284 285 661 662 663 667 668 669 853 854 855 2389 2390 2391
37 38 39 46 47 48 49 50 51 58 59 60 73 74 75 82 83 84 133 134 135 142 143 144 277 278 279 283 284 285 661 662 663 667 668 669 853 854 855 2389 2390 2391
37 38 39 46 47 48 49 50 51 58 59 60 73 74 75 82 83 84 133 134 135 142 143 144 277 278 279 283 284 285 661 662 663 667 668 669 853 854 855 2389 2390 2391
40 41 42 43 44 45 52 53 54 55 56 57 76 77 78 79 80 81 136 137 138 139 140 141 280 281 282 286 287 288 664 665 666 670 671 672 856 857 858 2392 2393 2394
40 41 42 43 44 45 52 53 54 55 56 57 76 77 78 79 80 81 136 137 138 139 140 141 280 281 282 286 287 288 664 665 666 670 671 672 856 857 858 2392 2393 2394
40 41 42 43 44 45 52 53 54 55 56 57 76 77 78 79 80 81 136 137 138 139 140 141 280 281 282 286 287 288 664 665 666 670 671 672 856 857 858 2392 2393 2394
40 41 42 43 44 45 52 53 54 55 56 57 76 77 78 79 80 81 136 137 138 139 140 141 277 278 279 283 284 285 661 662 663 667 668 669 859 860 861 2395 2396 2397
40 41 42 43 44 45 52 53 54 55 56 57 76 77 78 79 80 81 136 137 138 139 140 141 277 278 279 283 284 285 661 662 663 667 668 669 859 860 861 2395 2396 2397
40 41 42 43 44 45 52 53 54 55 56 57 76 77 78 79 80 81 136 137 138 139 140 141 277 278 279 283 284 285 661 662 663 667 668 669 859 860 861 2395 2396 2397
37 38 39 46 47 48 49 50 51 58 59 60 73 74 75 82 83 84 133 134 135 142 143 144 280 281 282 286 287 288 664 665 666 670 671 672 862 863 864 2398 2399 2400
37 38 39 46 47 48 49 50 51 58 59 60 73 74 75 82 83 84 133 134 135 142 143 144 280 281 282 286 287 288 664 665 666 670 671 672 862 863 864 2398 2399 2400
37 38 39 46 47 48 49 50 51 58 59 60 73 74 75 82 83 84 133 134 135 142 143 144 280 281 282 286 287 288 664 665 666 670 671 672 862 863 864 2398 2399 2400
49 50 51 58 59 60 109 110 111 118 119 120 133 134 135 142 143 144 145 146 147 154 155 156 289 290 291 295 296 297 673 674 675 679 680 681 865 866 867 2401 2402 2403
49 50 51 58 59 60 109 110 111 118 119 120 133 134 135 142 143 144 145 146 147 154 155 156 289 290 291 295 296 297 673 674 675 679 680 681 865 866 867 2401 2402 2403
49 50 51 58 59 60 109 110 111 118 119 120 133 134 135 142 143 144 145 146 147 154 155 156 289 290 291 295 296 297 673 674 675 679 680 681 865 866 867 2401 2402 2403
52 53 54 55 56 57 112 113 114 115 116 117 136 137 138 139 140 141 148 149 150 151 152 153 292 293 294 298 299 300 676 677 678 682 683 684 868 869 870 2404 2405 2406
52 53 54 55 56 57 112 113 114 115 116 117 136 137 138 139 140 141 148 149 150 151 152 153 292 293 294 298 299 300 676 677 678 682 683 684 868 869 870 2404 2405 2406
52 53 54 55 56 57 112 113 114 115 116 117 136 137 138 139 140 141 148 149 150 151 152 153 292 293 294 298 299 300 676 677 678 682 683 684 868 869 870 2404 2405 2406
52 53 54 55 56 57 112 113 114 115 116 117 136 137 138 139 140 141 148 149 150 151 152 153 289 290 291 295 296 297 673 674 675 679 680 681 871 872 873 2407 2408 2409
52 53 54 55 56 57 112 113 114 115 116 117 136 137 138 139 140 141 148 149 150 151 152 153 289 290 291 295 296 297 673 674 675 679 680 681 871 872 873 2407 2408 2409
52 53 54 55 56 57 112 113 114 115 116 117 136 137 138 139 140 141 148 149 150 151 152 153 289 290 291 295 296 297 673 674 675 679 680 681 871 872 873 2407 2408 2409
49 50 51 58 59 60 109 110 111 118 119 120 133 134 135 142 143 144 145 146 147 154 155 156 292 293 294 298 299 300 676 677 678 682 683 684 874 875 876 2410 2411 2412
49 50 51 58 59 60 109 110 111 118 119 120 133 134 135 142 143 144 145 146 147 154 155 156 292 293 294 298 299 300 676 677 678 682 683 684 874 875 876 2410 2411 2412
49 50 51 58 59 60 109 110 111 118 119 120 133 134 135 142 143 144 145 146 147 154 155 156 292 293 294 298 299 300 676 677 678 682 683 684 874 875 876 2410 2411 2412
61 62 63 70 71 72 97 98 99 106 107 108 121 122 123 130 131 132 157 158 159 166 167 168 301 302 303 307 308 309 685 686 687 691 692 693 877 878 879 2413 2414 2415
61 62 63 70 71 72 97 98 99 106 107 108 121 122 123 130 131 132 157 158 159 166 167 168 301 302 303 307 308 309 685 686 687 691 692 693 877 878 879 2413 2414 2415
61 62 63 70 71 72 97 98 99 106 107 108 121 122 123 130 131 132 157 158 159 166 167 168 301 302 303 307 308 309 685 686 687 691 692 693 877 878 879 2413 2414 2415
64 65 66 67 68 69 100 101 102 103 104 105 124 125 126 127 128 129 160 161 162 163 164 165 304 305 306 310 311 312 688 689 690 694 695 696 880 881 882 2416 2417 2418
64 65 66 67 68 69 100 101 102 103 104 105 124 125 126 127 128 129 160 161 162 163 164 165 304 305 306 310 311 312 688 689 690 694 695 696 880 881 882 2416 2417 2418
64 65 66 67 68 69 100 101 102 103 104 105 124 125 126 127 128 129 160 161 162 163 164 165 304 305 306 310 311 312 688 689 690 694 695 696 880 881 882 2416 2417 2418
64 65 66 67 68 69 100 101 102 103 104 105 124 125 126 127 128 129 160 161 162 163 164 165 301 302 303 307 308 309 685 686 687 691 692 693 883 884 885 2419 2420 2421
64 65 66 67 68 69 100 101 102 103 104 105 124 125 126 127 128 129 160 161 162 163 164 165 301 302 303 307 308 309 685 686 687 691 692 693 883 884 885 2419 2420 2421
64 65 66 67 68 69 100 101 102 103 104 105 124 125 126 127 128 129 160 161 162 163 164 165 301 302 303 307 308 309 685 686 687 691 692 693 883 884 885 2419 2420 2421
61 62 63 70 71 72 97 98 99 106 107 108 121 122 123 130 131 132 157 158 159 166 167 168 304 305 306 310 311 312 688 689 690 694 695 696 886 887 888 2422 2423 2424
61 62 63 70 71 72 97 98 99 106 107 108 121 122 123 130 131 132 157 158 159 166 167 168 304 305 306 310 311 312 688 689 690 694 695 696 886 887 888 2422 2423 2424
61 62 63 70 71 72 97 98 99 106 107 108 121 122 123 130 131 132 157 158 159 166 167 168 304 305 306 310 311 312 688 689 690 694 695 696 886 887 888 2422 2423 2424
73 74 75 82 83 84 109 110 111 118 119 120 133 134 135 142 143 144 169 170 171 178 179 180 313 314 315 319 320 321 697 698 699 703 704 705 889 890 891 2425 2426 2427
73 74 75 82 83 84 109 110 111 118 119 120 133 134 135 142 143 144 169 170 171 178 179 180 313 314 315 319 320 321 697 698 699 703 704 705 889 890 891 2425 2426 2427
73 74 75 82 83 84 109 110 111 118 119 120 133 134 135 142 143 144 169 170 171 178 179 180 313 314 315 319 320 321 697 698 699 703 704 705 889 890 891 2425 2426 2427
76 77 78 79 80 81 112 113 114 115 116 117 136 137 138 139 140 141 172 173 174 175 176 177 316 317 318 322 323 324 700 701 702 706 707 708 892 893 894 2428 2429 2430
76 77 78 79 80 81 112 113 114 115 116 117 136 137 138 139 140 141 172 173 174 175 176 177 316 317 318 322 323 324 700 701 702 706 707 708 892 893 894 2428 2429 2430
76 77 78 79 80 81 112 113 114 115 116 117 136 137 138 139 140 141 172 173 174 175 176 177 316 317 318 322 323 324 700 701 702 706 707 708 892 893 894 2428 2429 2430
76 77 78 79 80 81 112 113 114 115 116 117 136 137 138 139 140 141 172 173 174 175 176 177 313 314 315 319 320 321 697 698 699 703 704 705 895 896 897 2431 2432 2433
76 77 78 79 80 81 112 113 114 115 116 117 136 137 138 139 140 141 172 173 174 175 176 177 313 314 315 319 320 321 697 698 699 703 704 705 895 896 897 2431 2432 2433
76 77 78 79 80 81 112 113 114 115 116 117 136 137 138 139 140 141 172 173 174 175 176 177 313 314 315 319 320 321 697 698 699 703 704 705 895 896 897 2431 2432 2433
73 74 75 82 83 84 109 110 111 118 119 120 133 134 135 142 143 144 169 170 171 178 179 180 316 317 318 322 323 324 700 701 702 706 707 708 898 899 900 2434 2435 2436
73 74 75 82 83 84 109 110 111 118 119 120 133 134 135 142 143 144 169 170 171 178 179 180 316 317 318 322 323 324 700 701 702 706 707 708 898 899 900 2434 2435 2436
73 74 75 82 83 84 109 110 111 118 119 120 133 134 135 142 143 144 169 170 171 178 179 180 316 317 318 322 323 324 700 701 702 706 707 708 898 899 900 2434 2435 2436
85 86 87 94 95 96 97 98 99 106 107 108 121 122 123 130 131 132 181 182 183 190 191 192 325 326 327 331 332 333 709 710 711 715 716 717 901 902 903 2437 2438 2439
85 86 87 94 95 96 97 98 99 106 107 108 121 122 123 130 131 132 181 182 183 190 191 192 325 326 327 331 332 333 709 710 711 715 716 717 901 902 903 2437 2438 2439
85 86 87 94 95 96 97 98 99 106 107 108 121 122 123 130 131 132 181 182 183 190 191 192 325 326 327 331 332 333 709 710 711 715 716 717 901 902 903 2437 2438 2439
88 89 90 91 92 93 100 101 102 103 104 105 124 125 126 127 128 129 184 185 186 187 188 189 328 329 330 334 335 336 712 713 714 718 719 720 904 905 906 2440 2441 2442
88 89 90 91 92 93 100 101 102 103 104 105 124 125 126 127 128 129 184 185 186 187 188 189 328 329 330 334 335 336 712 713 714 718 719 720 904 905 906 2440 2441 2442
88 89 90 91 92 93 100 101 102 103 104 105 124 125 126 127 128 129 184 185 186 187 188 189 328 329 330 334 335 336 712 713 714 718 719 720 904 905 906 2440 2441 2442
88 89 90 91 92 93 100 101 102 103 104 105 124 125 126 127 128 129 184 185 186 187 188 189 325 326 327 331 332 333 709 710 711 715 716 717 907 908 909 2443 2444 2445
88 89 90 91 92 93 100 101 102 103 104 105 124 125 126 127 128 129 184 185 186 187 188 189 325 326 327 331 332 333 709 710 711 715 716 717 907 908 909 2443 2444 2445
88 89 90 91 92 93 100 101 102 103 104 105 124 125 126 127 128 129 184 185 186 187 188 189 325 326 327 331 332 333 709 710 711 715 716 717 907 908 909 2443 2444 2445
85 86 87 94 95 96 97 98 99 106 107 108 121 122 123 130 131 132 181 182 183 190 191 192 328 329 330 334 335 336 712 713 714 718 719 720 910 911 912 2446 2447 2448
85 86 87 94 95 96 97 98 99 106 107 108 121 122 123 130 131 132 181 182 183 190 191 192 328 329 330 334 335 336 712 713 714 718 719 720 910 911 912 2446 2447 2448
85 86 87 94 95 96 97 98 99 106 107 108 121 122 123 130 131 132 181 182 183 190 191 192 328 329 330 334 335 336 712 713 714 718 719 720 910 911 912 2446 2447 2448
1 2 3 10 11 12 97 98 99 106 107 108 157 158 159 166 167 168 181 182 183 190 191 192 337 338 339 343 344 345 721 722 723 727 728 729 913 914 915 2449 2450 2451
1 2 3 10 11 12 97 98 99 106 107 108 157 158 159 166 167 168 181 182 183 190 191 192 337 338 339 343 344 345 721 722 723 727 728 729 913 914 915 2449 2450 2451
1 2 3 10 11 12 97 98 99 106 107 108 157 158 159 166 167 168 181 182 183 190 191 192 337 338 339 343 344 345 721 722 723 727 728 729 913 914 915 2449 2450 2451
4 5 6 7 8 9 100 101 102 103 104 105 160 161 162 163 164 165 184 185 186 187 188 189 340 341 342 346 347 348 724 725 726 730 731 732 916 917 918 2452 2453 2454
4 5 6 7 8 9 100 101 102 103 104 105 160 161 162 163 164 165 184 185 186 187 188 189 340 341 342 346 347 348 724 725 726 730 731 732 916 917 918 2452 2453 2454
4 5 6 7 8 9 100 101 102 103 104 105 160 161 162 163 164 165 184 185 186 187 188 189 340 341 342 346 347 348 724 725 726 730 731 732 916 917 918 2452 2453 2454
4 5 6 7 8 9 100 101 102 103 104 105 160 161 162 163 164 165 184 185 186 187 188 189 337 338 339 343 344 345 721 722 723 727 728 729 919 920 921 2455 2456 2457
4 5 6 7 8 9 100 101 102 103 104 105 160 161 162 163 164 165 184 185 186 187 188 189 337 338 339 343 344 345 721 722 723 727 728 729 919 920 921 2455 2456 2457
4 5 6 7 8 9 100 101 102 103 104 105 160 161 162 163 164 165 184 185 186 187 188 189 337 338 339 343 344 345 721 722 723 727 728 729 919 920 921 2455 2456 2457
1 2 3 10 11 12 97 98 99 106 107 108 157 158 159 166 167 168 181 182 183 190 191 192 340 341 342 346 347 348 724 725 726 730 731 732 922 923 924 2458 2459 2460
1 2 3 10 11 12 97 98 99 106 107 108 157 158 159 166 167 168 181 182 183 190 191 192 340 341 342 346 347 348 724 725 726 730 731 732 922 923 924 2458 2459 2460
1 2 3 10 11 12 97 98 99 106 107 108 157 158 159 166 167 168 181 182 183 190 191 192 340 341 342 346 347 348 724 725 726 730 731 732 922 923 924 2458 2459 2460
13 14 15 22 23 24 109 110 111 118 119 120 145 146 147 154 155 156 169 170 171 178 179 180 349 350 351 355 356 357 733 734 735 739 740 741 925 926 927 2461 2462 2463
13 14 15 22 23 24 109 110 111 118 119 120 145 146 147 154 155 156 169 170 171 178 179 180 349 350 351 355 356 357 733 734 735 739 740 741 925 926 927 2461 2462 2463
13 14 15 22 23 24 109 110 111 118 119 120 145 146 147 154 155 156 169 170 171 178 179 180 349 350 351 355 356 357 733 734 735 739 740 741 925 926 927 2461 2462 2463
16 17 18 19 20 21 112 113 114 115 116 117 148 149 150 151 152 153 172 173 174 175 176 177 352 353 354 358 359 360 736 737 738 742 743 744 928 929 930 2464 2465 2466
16 17 18 19 20 21 112 113 114 115 116 117 148 149 150 151 152 153 172 173 174 175 176 177 352 353 354 358 359 360 736 737 738 742 743 744 928 929 930 2464 2465 2466
16 17 18 19 20 21 112 113 114 115 116 117 148 149 150 151 152 153 172 173 174 175 176 177 352 353 354 358 359 360 736 737 738 742 743 744 928 929 930 2464 2465 2466
16 17 18 19 20 21 112 113 114 115 116 117 148 149 150 151 152 153 172 173 174 175 176 177 349 350 351 355 356 357 733 734 735 739 740 741 931 932 933 2467 2468 2469
16 17 18 19 20 21 112 113 114 115 116 117 148 149 150 151 152 153 172 173 174 175 176 177 349 350 351 355 356 357 733 734 735 739 740 741 931 932 933 2467 2468 2469
16 17 18 19 20 21 112 113 114 115 116 117 148 149 150 151 152 153 172 173 174 175 176 177 349 350 351 355 356 357 733 734 735 739 740 741 931 932 933 2467 2468 2469
13 14 15 22 23 24 109 110 111 118 119 120 145 146 147 154 155 156 169 170 171 178 179 180 352 353 354 358 359 360 736 737 738 742 743 744 934 935 936 2470 2471 2472
13 14 15 22 23 24 109 110 111 118 119 120 145 146 147 154 155 156 169 170 171 178 179 180 352 353 354 358 359 360 736 737 738 742 743 744 934 935 936 2470 2471 2472
13 14 15 22 23 24 109 110 111 118 119 120 145 146 147 154 155 156 169 170 171 178 179 180 352 353 354 358 359 360 736 737 738 742 743 744 934 935 936 2470 2471 2472
25 26 27 34 35 36 121 122 123 130 131 132 157 158 159 166 167 168 181 182 183 190 191 192 361 362 363 367 368 369 745 746 747 751 752 753 937 938 939 2473 2474 2475
25 26 27 34 35 36 121 122 123 130 131 132 157 158 159 166 167 168 181 182 183 190 191 192 361 362 363 367 368 369 745 746 747 751 752 753 937 938 939 2473 2474 2475
25 26 27 34 35 36 121 122 123 130 131 132 157 158 159 166 167 168 181 182 183 190 191 192 361 362 363 367 368 369 745 746 747 751 752 753 937 938 939 2473 2474 2475
28 29 30 31 32 33 124 125 126 127 128 129 160 161 162 163 164 165 184 185 186 187 188 189 364 365 366 370 371 372 748 749 750 754 755 756 940 941 942 2476 2477 2478
28 29 30 31 32 33 124 125 126 127 128 129 160 161 162 163 164 165 184 185 186 187 188 189 364 365 366 370 371 372 748 749 750 754 755 756 940 941 942 2476 2477 2478
28 29 30 31 32 33 124 125 126 127 128 129 160 161 162 163 164 165 184 185 186 187 188 189 364 365 366 370 371 372 748 749 750 754 755 756 940 941 942 2476 2477 2478
28 29 30 31 32 33 124 125 126 127 128 129 160 161 162 163 164 165 184 185 186 187 188 189 361 362 363 367 368 369 745 746 747 751 752 753 943 944 945 2479 2480 2481
28 29 30 31 32 33 124 125 126 127 128 129 160 161 162 163 164 165 184 185 186 187 188 189 361 362 363 367 368 369 745 746 747 751 752 753 943 944 945 2479 2480 2481
28 29 30 31 32 33 124 125 126 127 128 129 160 161 162 163 164 165 184 185 186 187 188 189 361 362 363 367 368 369 745 746 747 751 752 753 943 944 945 2479 2480 2481
25 26 27 34 35 36 121 122 123 130 131 132 157 158 159 166 167 168 181 182 183 190 191 192 364 365 366 370 371 372 748 749 750 754 755 756 946 947 948 2482 2483 2484
25 26 27 34 35 36 121 122 123 130 131 132 157 158 159 166 167 168 181 182 183 190 191 192 364 365 366 370 371 372 748 749 750 754 755 756 946 947 948 2482 2483 2484
25 26 27 34 35 36 121 122 123 130 131 132 157 158 159 166 167 168 181 182 183 190 191 192 364 365 366 370 371 372 748 749 750 754 755 756 946 947 948 2482 2483 2484
37 38 39 46 47 48 133 134 135 142 143 144 145 146 147 154 155 156 169 170 171 178 179 180 373 374 375 379 380 381 757 758 759 763 764 765 949 950 951 2485 2486 2487
37 38 39 46 47 48 133 134 135 142 143 144 145 146 147 154 155 156 169 170 171 178 179 180 373 374 375 379 380 381 757 758 759 763 764 765 949 950 951 2485 2486 2487
37 38 39 46 47 48 133 134 135 142 143 144 145 146 147 154 155 156 169 170 171 178 179 180 373 374 375 379 380 381 757 758 759 763 764 765 949 950 951 2485 2486 2487
40 41 42 43 44 45 136 137 138 139 140 141 148 149 150 151 152 153 172 173 174 175 176 177 376 377 378 382 383 384 760 761 762 766 767 768 952 953 954 2488 2489 2490
40 41 42 43 44 45 136 137 138 139 140 141 148 149 150 151 152 153 172 173 174 175 176 177 376 377 378 382 383 384 760 761 762 766 767 768 952 953 954 2488 2489 2490
40 41 42 43 44 45 136 137 138 139 140 141 148 149 150 151 152 153 172 173 174 175 176 177 376 377 378 382 383 384 760 761 762 766 767 768 952 953 954 2488 2489 2490
40 41 42 43 44 45 136 137 138 139 140 141 148 149 150 151 152 153 172 173 174 175 176 177 373 374 375 379 380 381 757 758 759 763 764 765 955 956 957 2491 2492 2493
40 41 42 43 44 45 136 137 138 139 140 141 148 149 150 151 152 153 172 173 174 175 176 177 373 374 375 379 380 381 757 758 759 763 764 765 955 956 957 2491 2492 2493
40 41 42 43 44 45 136 137 138 139 140 141 148 149 150 151 152 153 172 173 174 175 176 177 373 374 375 379 380 381 757 758 759 763 764 765 955 956 957 2491 2492 2493
37 38 39 46 47 48 133 134 135 142 143 144 145 146 147 154 155 156 169 170 171 178 179 180 376 377 378 382 383 384 760 761 762 766 767 768 958 959 960 2494 2495 2496
37 38 39 46 47 48 133 134 135 142 143 144 145 146 147 154 155 156 169 170 171 178 179 180 376 377 378 382 383 384 760 761 762 766 767 768 958 959 960 2494 2495 2496
37 38 39 46 47 48 133 134 135 142 143 144 145 146 147 154 155 156 169 170 171 178 179 180 376 377 378 382 383 384 760 761 762 766 767 768 958 959 960 2494 2495 2496
1 2 3 7 8 9 205 206 207 214 215 216 229 230 231 238 239 240 241 242 243 250 251 252 337 338 339 346 347 348 385 386 387 391 392 393 961 962 963 2497 2498 2499
1 2 3 7 8 9 205 206 207 214 215 216 229 230 231 238 239 240 241 242 243 250 251 252 337 338 339 346 347 348 385 386 387 391 392 393 961 962 963 2497 2498 2499
1 2 3 7 8 9 205 206 207 214 215 216 229 230 231 238 239 240 241 242 243 250 251 252 337 338 339 346 347 348 385 386 387 391 392 393 961 962 963 2497 2498 2499
4 5 6 10 11 12 208 209 210 211 212 213 232 233 234 235 236 237 244 245 246 247 248 249 340 341 342 343 344 345 388 389 390 394 395 396 964 965 966 2500 2501 2502
4 5 6 10 11 12 208 209 210 211 212 213 232 233 234 235 236 237 244 245 246 247 248 249 340 341 342 343 344 345 388 389 390 394 395 396 964 965 966 2500 2501 2502
4 5 6 10 11 12 208 209 210 211 212 213 232 233 234 235 236 237 244 245 246 247 248 249 340 341 342 343 344 345 388 389 390 394 395 396 964 965 966 2500 2501 2502
1 2 3 7 8 9 208 209 210 211 212 213 232 233 234 235 236 237 244 245 246 247 248 249 340 341 342 343 344 345 385 386 387 391 392 393 967 968 969 2503 2504 2505
1 2 3 7 8 9 208 209 210 211 212 213 232 233 234 235 236 237 244 245 246 247 248 249 340 341 342 343 344 345 385 386 387 391 392 393 967 968 969 2503 2504 2505
1 2 3 7 8 9 208 209 210 211 212 213 232 233 234 235 236 237 244 245 246 247 248 249 340 341 342 343 344 345 385 386 387 391 392 393 967 968 969 2503 2504 2505
4 5 6 10 11 12 205 206 207 214 215 216 229 230 231 238 239 240 241 242 243 250 251 252 337 338 339 346 347 348 388 389 390 394 395 396 970 971 972 2506 2507 2508
4 5 6 10 11 12 205 206 207 214 215 216 229 230 231 238 239 240 241 242 243 250 251 252 337 338 339 346 347 348 388 389 390 394 395 396 970 971 972 2506 2507 2508
4 5 6 10 11 12 205 206 207 214 215 216 229 230 231 238 239 240 241 242 243 250 251 252 337 338 339 346 347 348 388 389 390 394 395 396 970 971 972 2506 2507 2508
13 14 15 19 20 21 193 194 195 202 203 204 217 218 219 226 227 228 253 254 255 262 263 264 349 350 351 358 359 360 397 398 399 403 404 405 973 974 975 2509 2510 2511
13 14 15 19 20 21 193 194 195 202 203 204 217 218 219 226 227 228 253 254 255 262 263 264 349 350 351 358 359 360 397 398 399 403 404 405 973 974 975 2509 2510 2511
13 14 15 19 20 21 193 194 195 202 203 204 217 218 219 226 227 228 253 254 255 262 263 264 349 350 351 358 359 360 397 398 399 403 404 405 973 974 975 2509 2510 2511
16 17 18 22 23 24 196 197 198 199 200 201 220 221 222 223 224 225 256 257 258 259 260 261 352 353 354 355 356 357 400 401 402 406 407 408 976 977 978 2512 2513 2514
16 17 18 22 23 24 196 197 198 199 200 201 220 221 222 223 224 225 256 257 258 259 260 261 352 353 354 355 356 357 400 401 402 406 407 408 976 977 978 2512 2513 2514
16 17 18 22 23 24 196 197 198 199 200 201 220 221 222 223 224 225 256 257 258 259 260 261 352 353 354 355 356 357 400 401 402 406 407 408 976 977 978 2512 2513 2514
13 14 15 19 20 21 196 197 198 199 200 201 220 221 222 223 224 225 256 257 258 259 260 261 352 353 354 355 356 357 397 398 399 403 404 405 979 980 981 2515 2516 2517
13 14 15 19 20 21 196 197 198 199 200 201 220 221 222 223 224 225 256 257 258 259 260 261 352 353 354 355 356 357 397 398 399 403 404 405 979 980 981 2515 2516 2517
13 14 15 19 20 21 196 197 198 199 200 201 220 221 222 223 224 225 256 257 258 259 260 261 352 353 354 355 356 357 397 398 399 403 404 405 979 980 981 2515 2516 2517
16 17 18 22 23 24 193 194 195 202 203 204 217 218 219 226 227 228 253 254 255 262 263 264 349 350 351 358 359 360 400 401 402 406 407 408 982 983 984 2518 2519 2520
16 17 18 22 23 24 193 194 195 202 203 204 217 218 219 226 227 228 253 254 255 262 263 264 349 350 351 358 359 360 400 401 402 406 407 408 982 983 984 2518 2519 2520
16 17 18 22 23 24 193 194 195 202 203 204 217 218 219 226 227 228 253 254 255 262 263 264 349 350 351 358 359 360 400 401 402 406 407 408 982 983 984 2518 2519 2520
25 26 27 31 32 33 205 206 207 214 215 216 229 230 231 238 239 240 265 266 267 274 275 276 361 362 363 370 371 372 409 410 411 415 416 417 985 986 987 2521 2522 2523
25 26 27 31 32 33 205 206 207 214 215 216 229 230 231 238 239 240 265 266 267 274 275 276 361 362 363 370 371 372 409 410 411 415 416 417 985 986 987 2521 2522 2523
25 26 27 31 32 33 205 206 207 214 215 216 229 230 231 238 239 240 265 266 267 274 275 276 361 362 363 370 371 372 409 410 411 415 416 417 985 986 987 2521 2522 2523
28 29 30 34 35 36 208 209 210 211 212 213 232 233 234 235 236 237 268 269 270 271 272 273 364 365 366 367 368 369 412 413 414 418 419 420 988 989 990 2524 2525 2526
28 29 30 34 35 36 208 209 210 211 212 213 232 233 234 235 236 237 268 269 270 271 272 273 364 365 366 367 368 369 412 413 414 418 419 420 988 989 990 2524 2525 2526
28 29 30 34 35 36 208 209 210 211 212 213 232 233 234 235 236 237 268 269 270 271 272 273 364 365 366 367 368 369 412 413 414 418 419 420 988 989 990 2524 2525 2526
25 26 27 31 32 33 208 209 210 211 212 213 232 233 234 235 236 237 268 269 270 271 272 273 364 365 366 367 368 369 409 410 411 415 416 417 991 992 993 2527 2528 2529
25 26 27 31 32 33 208 209 210 211 212 213 232 233 234 235 236 237 268 269 270 271 272 273 364 365 366 367 368 369 409 410 411 415 416 417 991 992 993 2527 2528 2529
25 26 27 31 32 33 208 209 210 211 212 213 232 233 234 235 236 237 268 269 270 271 272 273 364 365 366 367 368 369 409 410 411 415 416 417 991 992 993 2527 2528 2529
28 29 30 34 35 36 205 206 207 214 215 216 229 230 231 238 239 240 265 266 267 274 275 276 361 362 363 370 371 372 412 413 414 418 419 420 994 995 996 2530 2531 2532
28 29 30 34 35 36 205 206 207 214 215 216 229 230 231 238 239 240 265 266 267 274 275 276 361 362 363 370 371 372 412 413 414 418 419 420 994 995 996 2530 2531 2532
28 29 30 34 35 36 205 206 207 214 215 216 229 230 231 238 239 240 265 266 267 274 275 276 361 362 363 370 371 372 412 413 414 418 419 420 994 995 996 2530 2531 2532
37 38 39 43 44 45 193 194 195 202 203 204 217 218 219 226 227 228 277 278 279 286 287 288 373 374 375 382 383 384 421 422 423 427 428 429 997 998 999 2533 2534 2535
37 38 39 43 44 45 193 194 195 202 203 204 217 218 219 226 227 228 277 278 279 286 287 288 373 374 375 382 383 384 421 422 423 427 428 429 997 998 999 2533 2534 2535
37 38 39 43 44 45 193 194 195 202 203 204 217 218 219 226 227 228 277 278 279 286 287 288 373 374 375 382 383 384 421 422 423 427 428 429 997 998 999 2533 2534 2535
40 41 42 46 47 48 196 197 198 199 200 201 220 221 222 223 224 225 280 281 282 283 284 285 376 377 378 379 380 381 424 425 426 430 431 432 1000 1001 1002 2536 2537 2538
40 41 42 46 47 48 196 197 198 199 200 201 220 221 222 223 224 225 280 281 282 283 284 285 376 377 378 379 380 381 424 425 426 430 431 432 1000 1001 1002 2536 2537 2538
40 41 42 46 47 48 196 197 198 199 200 201 220 221 222 223 224 225 280 281 282 283 284 285 376 377 378 379 380 381 424 425 426 430 431 432 1000 1001 1002 2536 2537 2538
37 38 39 43 44 45 196 197 198 199 200 201 220 221 222 223 224 225 280 281 282 283 284 285 376 377 378 379 380 381 421 422 423 427 428 429 1003 1004 1005 2539 2540 2541
37 38 39 43 44 45 196 197 198 199 200 201 220 221 222 223 224 225 280 281 282 283 284 285 376 377 378 379 380 381 421 422 423 427 428 429 1003 1004 1005 2539 2540 2541
37 38 39 43 44 45 196 197 198 199 200 201 220 221 222 223 224 225 280 281 282 283 284 285 376 377 378 379 380 381 421 422 423 427 428 429 1003 1004 1005 2539 2540 2541
40 41 42 46 47 48 193 194 195 202 203 204 217 218 219 226 227 228 277 278 279 286 287 288 373 374 375 382 383 384 424 425 426 430 431 432 1006 1007 1008 2542 2543 2544
40 41 42 46 47 48 193 194 195 202 203 204 217 218 219 226 227 228 277 278 279 286 287 288 373 374 375 382 383 384 424 425 426 430 431 432 1006 1007 1008 2542 2543 2544
40 41 42 46 47 48 193 194 195 202 203 204 217 218 219 226 227 228 277 278 279 286 287 288 373 374 375 382 383 384 424 425 426 430 431 432 1006 1007 1008 2542 2543 2544
49 50 51 55 56 57 193 194 195 202 203 204 253 254 255 262 263 264 277 278 279 286 287 288 289 290 291 298 299 300 433 434 435 439 440 441 1009 1010 1011 2545 2546 2547
49 50 51 55 56 57 193 194 195 202 203 204 253 254 255 262 263 264 277 278 279 286 287 288 289 290 291 298 299 300 433 434 435 439 440 441 1009 1010 1011 2545 2546 2547
49 50 51 55 56 57 193 194 195 202 203 204 253 254 255 262 263 264 277 278 279 286 287 288 289 290 291 298 299 300 433 434 435 439 440 441 1009 1010 1011 2545 2546 2547
52 53 54 58 59 60 196 197 198 199 200 201 256 257 258 259 260 261 280 281 282 283 284 285 292 293 294 295 296 297 436 437 438 442 443 444 1012 1013 1014 2548 2549 2550
52 53 54 58 59 60 196 197 198 199 200 201 256 257 258 259 260 261 280 281 282 283 284 285 292 293 294 295 296 297 436 437 438 442 443 444 1012 1013 1014 2548 2549 2550
52 53 54 58 59 60 196 197 198 199 200 201 256 257 258 259 260 261 280 281 282 283 284 285 292 293 294 295 296 297 436 437 438 442 443 444 1012 1013 1014 2548 2549 2550
49 50 51 55 56 57 196 197 198 199 200 201 256 257 258 259 260 261 280 281 282 283 284 285 292 293 294 295 296 297 433 434 435 439 440 441 1015 1016 1017 2551 2552 2553
49 50 51 55 56 57 196 197 198 199 200 201 256 257 258 259 260 261 280 281 282 283 284 285 292 293 294 295 296 297 433 434 435 439 440 441 1015 1016 1017 2551 2552 2553
49 50 51 55 56 57 196 197 198 199 200 201 256 257 258 259 260 261 280 281 282 283 284 285 292 293 294 295 296 297 433 434 435 439 440 441 1015 1016 1017 2551 2552 2553
52 53 54 58 59 60 193 194 195 202 203 204 253 254 255 262 263 264 277 278 279 286 287 288 289 290 291 298 299 300 436 437 438 442 443 444 1018 1019 1020 2554 2555 2556
52 53 54 58 59 60 193 194 195 202 203 204 253 254 255 262 263 264 277 278 279 286 287 288 289 290 291 298 299 300 436 437 438 442 443 444 1018 1019 1020 2554 2555 2556
52 53 54 58 59 60 193 194 195 202 203 204 253 254 255 262 263 264 277 278 279 286 287 288 289 290 291 298 299 300 436 437 438 442 443 444 1018 1019 1020 2554 2555 2556
61 62 63 67 68 69 205 206 207 214 215 216 241 242 243 250 251 252 265 266 267 274 275 276 301 302 303 310 311 312 445 446 447 451 452 453 1021 1022 1023 2557 2558 2559
61 62 63 67 68 69 205 206 207 214 215 216 241 242 243 250 251 252 265 266 267 274 275 276 301 302 303 310 311 312 445 446 447 451 452 453 1021 1022 1023 2557 2558 2559
61 62 63 67 68 69 205 206 207 214 215 216 241 242 243 250 251 252 265 266 267 274 275 276 301 302 303 310 311 312 445 446 447 451 452 453 1021 1022 1023 2557 2558 2559
64 65 66 70 71 72 208 209 210 211 212 213 244 245 246 247 248 249 268 269 270 271 272 273 304 305 306 307 308 309 448 449 450 454 455 456 1024 1025 1026 2560 2561 2562
64 65 66 70 71 72 208 209 210 211 212 213 244 245 246 247 248 249 268 269 270 271 272 273 304 305 306 307 308 309 448 449 450 454 455 456 1024 1025 1026 2560 2561 2562
64 65 66 70 71 72 208 209 210 211 212 213 244 245 246 247 248 249 268 269 270 271 272 273 304 305 306 307 308 309 448 449 450 454 455 456 1024 1025 1026 2560 2561 2562
61 62 63 67 68 69 208 209 210 211 212 213 244 245 246 247 248 249 268 269 270 271 272 273 304 305 306 307 308 309 445 446 447 451 452 453 1027 1028 1029 2563 2564 2565
61 62 63 67 68 69 208 209 210 211 212 213 244 245 246 247 248 249 268 269 270 271 272 273 304 305 306 307 308 309 445 446 447 451 452 453 1027 1028 1029 2563 2564 2565
61 62 63 67 68 69 208 209 210 211 212 213 244 245 246 247 248 249 268 269 270 271 272 273 304 305 306 307 308 309 445 446 447 451 452 453 1027 1028 1029 2563 2564 2565
64 65 66 70 71 72 205 206 207 214 215 216 241 242 243 250 251 252 265 266 267 274 275 276 301 302 303 310 311 312 448 449 450 454 455 456 1030 1031 1032 2566 2567 2568
64 65 66 70 71 72 205 206 207 214 215 216 241 242 243 250 251 252 265 266 267 274 275 276 301 302 303 310 311 312 448 449 450 454 455 456 1030 1031 1032 2566 2567 2568
64 65 66 70 71 72 205 206 207 214 215 216 241 242 243 250 251 252 265 266 267 274 275 276 301 302 303 310 311 312 448 449 450 454 455 456 1030 1031 1032 2566 2567 2568
73 74 75 79 80 81 217 218 219 226 227 228 253 254 255 262 263 264 277 278 279 286 287 288 313 314 315 322 323 324 457 458 459 463 464 465 1033 1034 1035 2569 2570 2571
73 74 75 79 80 81 217 218 219 226 227 228 253 254 255 262 263 264 277 278 279 286 287 288 313 314 315 322 323 324 457 458 459 463 464 465 1033 1034 1035 2569 2570 2571
73 74 75 79 80 81 217 218 219 226 227 228 253 254 255 262 263 264 277 278 279 286 287 288 313 314 315 322 323 324 457 458 459 463 464 465 1033 1034 1035 2569 2570 2571
76 77 78 82 83 84 220 221 222 223 224 225 256 257 258 259 260 261 280 281 282 283 284 285 316 317 318 319 320 321 460 461 462 466 467 468 1036 1037 1038 2572 2573 2574
76 77 78 82 83 84 220 221 222 223 224 225 256 257 258 259 260 261 280 281 282 283 284 285 316 317 318 319 320 321 460 461 462 466 467 468 1036 1037 1038 2572 2573 2574
76 77 78 82 83 84 220 221 222 223 224 225 256 257 258 259 260 261 280 281 282 283 284 285 316 317 318 319 320 321 460 461 462 466 467 468 1036 1037 1038 2572 2573 2574
73 74 75 79 80 81 220 221 222 223 224 225 256 257 258 259 260 261 280 281 282 283 284 285 316 317 318 319 320 321 457 458 459 463 464 465 1039 1040 1041 2575 2576 2577
73 74 75 79 80 81 220 221 222 223 224 225 256 257 258 259 260 261 280 281 282 283 284 285 316 317 318 319 320 321 457 458 459 463 464 465 1039 1040 1041 2575 2576 2577
73 74 75 79 80 81 220 221 222 223 224 225 256 257 258 259 260 261 280 281 282 283 284 285 316 317 318 319 320 321 457 458 459 463 464 465 1039 1040 1041 2575 2576 2577
76 77 78 82 83 84 217 218 219 226 227 228 253 254 255 262 263 264 277 278 279 286 287 288 313 314 315 322 323 324 460 461 462 466 467 468 1042 1043 1044 2578 2579 2580
76 77 78 82 83 84 217 218 219 226 227 228 253 254 255 262 263 264 277 278 279 286 287 288 313 314 315 322 323 324 460 461 462 466 467 468 1042 1043 1044 2578 2579 2580
76 77 78 82 83 84 217 218 219 226 227 228 253 254 255 262 263 264 277 278 279 286 287 288 313 314 315 322 323 324 460 461 462 466 467 468 1042 1043 1044 2578 2579 2580
85 86 87 91 92 93 229 230 231 238 239 240 241 242 243 250 251 252 265 266 267 274 275 276 325 326 327 334 335 336 469 470 471 475 476 477 1045 1046 1047 2581 2582 2583
85 86 87 91 92 93 229 230 231 238 239 240 241 242 243 250 251 252 265 266 267 274 275 276 325 326 327 334 335 336 469 470 471 475 476 477 1045 1046 1047 2581 2582 2583
85 86 87 91 92 93 229 230 231 238 239 240 241 242 243 250 251 252 265 266 267 274 275 276 325 326 327 334 335 336 469 470 471 475 476 477 1045 1046 1047 2581 2582 2583
88 89 90 94 95 96 232 233 234 235 236 237 244 245 246 247 248 249 268 269 270 271 272 273 328 329 330 331 332 333 472 473 474 478 479 480 1048 1049 1050 2584 2585 2586
88 89 90 94 95 96 232 233 234 235 236 237 244 245 246 247 248 249 268 269 270 271 272 273 328 329 330 331 332 333 472 473 474 478 479 480 1048 1049 1050 2584 2585 2586
88 89 90 94 95 96 232 233 234 235 236 237 244 245 246 247 248 249 268 269 270 271 272 273 328 329 330 331 332 333 472 473 474 478 479 480 1048 1049 1050 2584 2585 2586
85 86 87 91 92 93 232 233 234 235 236 237 244 245 246 247 248 249 268 269 270 271 272 273 328 329 330 331 332 333 469 470 471 475 476 477 1051 1052 1053 2587 2588 2589
85 86 87 91 92 93 232 233 234 235 236 237 244 245 246 247 248 249 268 269 270 271 272 273 328 329 330 331 332 333 469 470 471 475 476 477 1051 1052 1053 2587 2588 2589
85 86 87 91 92 93 232 233 234 235 236 237 244 245 246 247 248 249 268 269 270 271 272 273 328 329 330 331 332 333 469 470 471 475 476 477 1051 1052 1053 2587 2588 2589
88 89 90 94 95 96 229 230 231 238 239 240 241 242 243 250 251 252 265 266 267 274 275 276 325 326 327 334 335 336 472 473 474 478 479 480 1054 1055 1056 2590 2591 2592
88 89 90 94 95 96 229 230 231 238 239 240 241 242 243 250 251 252 265 266 267 274 275 276 325 326 327 334 335 336 472 473 474 478 479 480 1054 1055 1056 2590 2591 2592
88 89 90 94 95 96 229 230 231 238 239 240 241 242 243 250 251 252 265 266 267 274 275 276 325 326 327 334 335 336 472 473 474 478 479 480 1054 1055 1056 2590 2591 2592
97 98 99 103 104 105 241 242 243 250 251 252 301 302 303 310 311 312 325 326 327 334 335 336 337 338 339 346 347 348 481 482 483 487 488 489 1057 1058 1059 2593 2594 2595
97 98 99 103 104 105 241 242 243 250 251 252 301 302 303 310 311 312 325 326 327 334 335 336 337 338 339 346 347 348 481 482 483 487 488 489 1057 1058 1059 2593 2594 2595
97 98 99 103 104 105 241 242 243 250 251 252 301 302 303 310 311 312 325 326 327 334 335 336 337 338 339 346 347 348 481 482 483 487 488 489 1057 1058 1059 2593 2594 2595
100 101 102 106 107 108 244 245 246 247 248 249 304 305 306 307 308 309 328 329 330 331 332 333 340 341 342 343 344 345 484 485 486 490 491 492 1060 1061 1062 2596 2597 2598
100 101 102 106 107 108 244 245 246 247 248 249 304 305 306 307 308 309 328 329 330 331 332 333 340 341 342 343 344 345 484 485 486 490 491 492 1060 1061 1062 2596 2597 2598
100 101 102 106 107 108 244 245 246 247 248 249 304 305 306 307 308 309 328 329 330 331 332 333 340 341 342 343 344 345 484 485 486 490 491 492 1060 1061 1062 2596 2597 2598
97 98 99 103 104 105 244 245 246 247 248 249 304 305 306 307 308 309 328 329 330 331 332 333 340 341 342 343 344 345 481 482 483 487 488 489 1063 1064 1065 2599 2600 2601
97 98 99 103 104 105 244 245 246 247 248 249 304 305 306 307 308 309 328 329 330 331 332 333 340 341 342 343 344 345 481 482 483 487 488 489 1063 1064 1065 2599 2600 2601
97 98 99 103 104 105 244 245 246 247 248 249 304 305 306 307 308 309 328 329 330 331 332 333 340 341 342 343 344 345 481 482 483 487 488 489 1063 1064 1065 2599 2600 2601
100 101 102 106 107 108 241 242 243 250 251 252 301 302 303 310 311 312 325 326 327 334 335 336 337 338 339 346 347 348 484 485 486 490 491 492 1066 1067 1068 2602 2603 2604
100 101 102 106 107 108 241 242 243 250 251 252 301 302 303 310 311 312 325 326 327 334 335 336 337 338 339 346 347 348 484 485 486 490 491 492 1066 1067 1068 2602 2603 2604
100 101 102 106 107 108 241 242 243 250 251 252 301 302 303 310 311 312 325 326 327 334 335 336 337 338 339 346 347 348 484 485 486 490 491 492 1066 1067 1068 2602 2603 2604
109 110 111 115 116 117 253 254 255 262 263 264 289 290 291 298 299 300 313 314 315 322 323 324 349 350 351 358 359 360 493 494 495 499 500 501 1069 1070 1071 2605 2606 2607
109 110 111 115 116 117 253 254 255 262 263 264 289 290 291 298 299 300 313 314 315 322 323 324 349 350 351 358 359 360 493 494 495 499 500 501 1069 1070 1071 2605 2606 2607
109 110 111 115 116 117 253 254 255 262 263 264 289 290 291 298 299 300 313 314 315 322 323 324 349 350 351 358 359 360 493 494 495 499 500 501 1069 1070 1071 2605 2606 2607
112 113 114 118 119 120 256 257 258 259 260 261 292 293 294 295 296 297 316 317 318 319 320 321 352 353 354 355 356 357 496 497 498 502 503 504 1072 1073 1074 2608 2609 2610
112 113 114 118 119 120 256 257 258 259 260 261 292 293 294 295 296 297 316 317 318 319 320 321 352 353 354 355 356 357 496 497 498 502 503 504 1072 1073 1074 2608 2609 2610
112 113 114 118 119 120 256 257 258 259 260 261 292 293 294 295 296 297 316 317 318 319 320 321 352 353 354 355 356 357 496 497 498 502 503 504 1072 1073 1074 2608 2609 2610
109 110 111 115 116 117 256 257 258 259 260 261 292 293 294 295 296 297 316 317 318 319 320 321 352 353 354 355 356 357 493 494 495 499 500 501 1075 1076 1077 2611 2612 2613
109 110 111 115 116 117 256 257 258 259 260 261 292 293 294 295 296 297 316 317 318 319 320 321 352 353 354 355 356 357 493 494 495 499 500 501 1075 1076 1077 2611 2612 2613
109 110 111 115 116 117 256 257 258 259 260 261 292 293 294 295 296 297 316 317 318 319 320 321 352 353 354 355 356 357 493 494 495 499 500 501 1075 1076 1077 2611 2612 2613
112 113 114 118 119 120 253 254 255 262 263 264 289 290 291 298 299 300 313 314 315 322 323 324 349 350 351 358 359 360 496 497 498 502 503 504 1078 1079 1080 2614 2615 2616
112 113 114 118 119 120 253 254 255 262 263 264 289 290 291 298 299 300 313 314 315 322 323 324 349 350 351 358 359 360 496 497 498 502 503 504 1078 1079 1080 2614 2615 2616
112 113 114 118 119 120 253 254 255 262 263 264 289 290 291 298 299 300 313 314 315 322 323 324 349 350 351 358 359 360 496 497 498 502 503 504 1078 1079 1080 2614 2615 2616
121 122 123 127 128 129 265 266 267 274 275 276 301 302 303 310 311 312 325 326 327 334 335 336 361 362 363 370 371 372 505 506 507 511 512 513 1081 1082 1083 2617 2618 2619
121 122 123 127 128 129 265 266 267 274 275 276 301 302 303 310 311 312 325 326 327 334 335 336 361 362 363 370 371 372 505 506 507 511 512 513 1081 1082 1083 2617 2618 2619
121 122 123 127 128 129 265 266 267 274 275 276 301 302 303 310 311 312 325 326 327 334 335 336 361 362 363 370 371 372 505 506 507 511 512 513 1081 1082 1083 2617 2618 2619
124 125 126 130 131 132 268 269 270 271 272 273 304 305 306 307 308 309 328 329 330 331 332 333 364 365 366 367 368 369 508 509 510 514 515 516 1084 1085 1086 2620 2621 2622
124 125 126 130 131 132 268 269 270 271 272 273 304 305 306 307 308 309 328 329 330 331 332 333 364 365 366 367 368 369 508 509 510 514 515 516 1084 1085 1086 2620 2621 2622
124 125 126 130 131 132 268 269 270 271 272 273 304 305 306 307 308 309 328 329 330 331 332 333 364 365 366 367 368 369 508 509 510 514 515 516 1084 1085 1086 2620 2621 2622
121 122 123 127 128 129 268 269 270 271 272 273 304 305 306 307 308 309 328 329 330 331 332 333 364 365 366 367 368 369 505 506 507 511 512 513 1087 1088 1089 2623 2624 2625
121 122 123 127 128 129 268 269 270 271 272 273 304 305 306 307 308 309 328 329 330 331 332 333 364 365 366 367 368 369 505 506 507 511 512 513 1087 1088 1089 2623 2624 2625
121 122 123 127 128 129 268 269 270 271 272 273 304 305 306 307 308 309 328 329 330 331 332 333 364 365 366 367 368 369 505 506 507 511 512 513 1087 1088 1089 2623 2624 2625
124 125 126 130 131 132 265 266 267 274 275 276 301 302 303 310 311 312 325 326 327 334 335 336 361 362 363 370 371 372 508 509 510 514 515 516 1090 1091 1092 2626 2627 2628
124 125 126 130 131 132 265 266 267 274 275 276 301 302 303 310 311 312 325 326 327 334 335 336 361 362 363 370 371 372 508 509 510 514 515 516 1090 1091 1092 2626 2627 2628
124 125 126 130 131 132 265 266 267 274 275 276 301 302 303 310 311 312 325 326 327 334 335 336 361 362 363 370 371 372 508 509 510 514 515 516 1090 1091 1092 2626 2627 2628
133 134 135 139 140 141 277 278 279 286 287 288 289 290 291 298 299 300 313 314 315 322 323 324 373 374 375 382 383 384 517 518 519 523 524 525 1093 1094 1095 2629 2630 2631
133 134 135 139 140 141 277 278 279 286 287 288 289 290 291 298 299 300 313 314 315 322 323 324 373 374 375 382 383 384 517 518 519 523 524 525 1093 1094 1095 2629 2630 2631
133 134 135 139 140 141 277 278 279 286 287 288 289 290 291 298 299 300 313 314 315 322 323 324 373 374 375 382 383 384 517 518 519 523 524 525 1093 1094 1095 2629 2630 2631
136 137 138 142 143 144 280 281 282 283 284 285 292 293 294 295 296 297 316 317 318 319 320 321 376 377 378 379 380 381 520 521 522 526 527 528 1096 1097 1098 2632 2633 2634
136 137 138 142 143 144 280 281 282 283 284 285 292 293 294 295 296 297 316 317 318 319 320 321 376 377 378 379 380 381 520 521 522 526 527 528 1096 1097 1098 2632 2633 2634
136 137 138 142 143 144 280 281 282 283 284 285 292 293 294 295 296 297 316 317 318 319 320 321 376 377 378 379 380 381 520 521 522 526 527 528 1096 1097 1098 2632 2633 2634
133 134 135 139 140 141 280 281 282 283 284 285 292 293 294 295 296 297 316 317 318 319 320 321 376 377 378 379 380 381 517 518 519 523 524 525 1099 1100 1101 2635 2636 2637
133 134 135 139 140 141 280 281 282 283 284 285 292 293 294 295 296 297 316 317 318 319 320 321 376 377 378 379 380 381 517 518 519 523 524 525 1099 1100 1101 2635 2636 2637
133 134 135 139 140 141 280 281 282 283 284 285 292 293 294 295 296 297 316 317 318 319 320 321 376 377 378 379 380 381 517 518 519 523 524 525 1099 1100 1101 2635 2636 2637
136 137 138 142 143 144 277 278 279 286 287 288 289 290 291 298 299 300 313 314 315 322 323 324 373 374 375 382 383 384 520 521 522 526 527 528 1102 1103 1104 2638 2639 2640
136 137 138 142 143 144 277 278 279 286 287 288 289 290 291 298 299 300 313 314 315 322 323 324 373 374 375 382 383 384 520 521 522 526 527 528 1102 1103 1104 2638 2639 2640
136 137 138 142 143 144 277 278 279 286 287 288 289 290 291 298 299 300 313 314 315 322 323 324 373 374 375 382 383 384 520 521 522 526 527 528 1102 1103 1104 2638 2639 2640
145 146 147 151 152 153 193 194 195 202 203 204 289 290 291 298 299 300 349 350 351 358 359 360 373 374 375 382 383 384 529 530 531 535 536 537 1105 1106 1107 2641 2642 2643
145 146 147 151 152 153 193 194 195 202 203 204 289 290 291 298 299 300 349 350 351 358 359 360 373 374 375 382 383 384 529 530 531 535 536 537 1105 1106 1107 2641 2642 2643
145 146 147 151 152 153 193 194 195 202 203 204 289 290 291 298 299 300 349 350 351 358 359 360 373 374 375 382 383 384 529 530 531 535 536 537 1105 1106 1107 2641 2642 2643
148 149 150 154 155 156 196 197 198 199 200 201 292 293 294 295 296 297 352 353 354 355 356 357 376 377 378 379 380 381 532 533 534 538 539 540 1108 1109 1110 2644 2645 2646
148 149 150 154 155 156 196 197 198 199 200 201 292 293 294 295 296 297 352 353 354 355 356 357 376 377 378 379 380 381 532 533 534 538 539 540 1108 1109 1110 2644 2645 2646
148 149 150 154 155 156 196 197 198 199 200 201 292 293 294 295 296 297 352 353 354 355 356 357 376 377 378 379 380 381 532 533 534 538 539 540 1108 1109 1110 2644 2645 2646
145 146 147 151 152 153 196 197 198 199 200 201 292 293 294 295 296 297 352 353 354 355 356 357 376 377 378 379 380 381 529 530 531 535 536 537 1111 1112 1113 2647 2648 2649
145 146 147 151 152 153 196 197 198 199 200 201 292 293 294 295 296 297 352 353 354 355 356 357 376 377 378 379 380 381 529 530 531 535 536 537 1111 1112 1113 2647 2648 2649
145 146 147 151 152 153 196 197 198 199 200 201 292 293 294 295 296 297 352 353 354 355 356 357 376 377 378 379 380 381 529 530 531 535 536 537 1111 1112 1113 2647 2648 2649
148 149 150 154 155 156 193 194 195 202 203 204 289 290 291 298 299 300 349 350 351 358 359 360 373 374 375 382 383 384 532 533 534 538 539 540 1114 1115 1116 2650 2651 2652
148 149 150 154 155 156 193 194 195 202 203 204 289 290 291 298 299 300 349 350 351 358 359 360 373 374 375 382 383 384 532 533 534 538 539 540 1114 1115 1116 2650 2651 2652
148 149 150 154 155 156 193 194 195 202 203 204 289 290 291 298 299 300 349 350 351 358 359 360 373 374 375 382 383 384 532 533 534 538 539 540 1114 1115 1116 2650 2651 2652
157 158 159 163 164 165 205 206 207 214 215 216 301 302 303 310 311 312 337 338 339 346 347 348 361 362 363 370 371 372 541 542 543 547 548 549 1117 1118 1119 2653 2654 2655
157 158 159 163 164 165 205 206 207 214 215 216 301 302 303 310 311 312 337 338 339 346 347 348 361 362 363 370 371 372 541 542 543 547 548 549 1117 1118 1119 2653 2654 2655
157 158 159 163 164 165 205 206 207 214 215 216 301 302 303 310 311 312 337 338 339 346 347 348 361 362 363 370 371 372 541 542 543 547 548 549 1117 1118 1119 2653 2654 2655
160 161 162 166 167 168 208 209 210 211 212 213 304 305 306 307 308 309 340 341 342 343 344 345 364 365 366 367 368 369 544 545 546 550 551 552 1120 1121 1122 2656 2657 2658
160 161 162 166 167 168 208 209 210 211 212 213 304 305 306 307 308 309 340 341 342 343 344 345 364 365 366 367 368 369 544 545 546 550 551 552 1120 1121 1122 2656 2657 2658
160 161 162 166 167 168 208 209 210 211 212 213 304 305 306 307 308 309 340 341 342 343 344 345 364 365 366 367 368 369 544 545 546 550 551 552 1120 1121 1122 2656 2657 2658
157 158 159 163 164 165 208 209 210 211 212 213 304 305 306 307 308 309 340 341 342 343 344 345 364 365 366 367 368 369 541 542 543 547 548 549 1123 1124 1125 2659 2660 2661
157 158 159 163 164 165 208 209 210 211 212 213 304 305 306 307 308 309 340 341 342 343 344 345 364 365 366 367 368 369 541 542 543 547 548 549 1123 1124 1125 2659 2660 2661
157 158 159 163 164 165 208 209 210 211 212 213 304 305 306 307 308 309 340 341 342 343 344 345 364 365 366 367 368 369 541 542 543 547 548 549 1123 1124 1125 2659 2660 2661
160 161 162 166 167 168 205 206 207 214 215 216 301 302 303 310 311 312 337 338 339 346 347 348 361 362 363 370 371 372 544 545 546 550 551 552 1126 1127 1128 2662 2663 2664
160 161 162 166 167 168 205 206 207 214 215 216 301 302 303 310 311 312 337 338 339 346 347 348 361 362 363 370 371 372 544 545 546 550 551 552 1126 1127 1128 2662 2663 2664
160 161 162 166 167 168 205 206 207 214 215 216 301 302 303 310 311 312 337 338 339 346 347 348 361 362 363 370 371 372 544 545 546 550 551 552 1126 1127 1128 2662 2663 2664
169 170 171 175 176 177 217 218 219 226 227 228 313 314 315 322 323 324 349 350 351 358 359 360 373 374 375 382 383 384 553 554 555 559 560 561 1129 1130 1131 2665 2666 2667
169 170 171 175 176 177 217 218 219 226 227 228 313 314 315 322 323 324 349 350 351 358 359 360 373 374 375 382 383 384 553 554 555 559 560 561 1129 1130 1131 2665 2666 2667
169 170 171 175 176 177 217 218 219 226 227 228 313 314 315 322 323 324 349 350 351 358 359 360 373 374 375 382 383 384 553 554 555 559 560 561 1129 1130 1131 2665 2666 2667
172 173 174 178 179 180 220 221 222 223 224 225 316 317 318 319 320 321 352 353 354 355 356 357 376 377 378 379 380 381 556 557 558 562 563 564 1132 1133 1134 2668 2669 2670
172 173 174 178 179 180 220 221 222 223 224 225 316 317 318 319 320 321 352 353 354 355 356 357 376 377 378 379 380 381 556 557 558 562 563 564 1132 1133 1134 2668 2669 2670
172 173 174 178 179 180 220 221 222 223 224 225 316 317 318 319 320 321 352 353 354 355 356 357 376 377 378 379 380 381 556 557 558 562 563 564 1132 1133 1134 2668 2669 2670
169 170 171 175 176 177 220 221 222 223 224 225 316 317 318 319 320 321 352 353 354 355 356 357 376 377 378 379 380 381 553 554 555 559 560 561 1135 1136 1137 2671 2672 2673
169 170 171 175 176 177 220 221 222 223 224 225 316 317 318 319 320 321 352 353 354 355 356 357 376 377 378 379 380 381 553 554 555 559 560 561 1135 1136 1137 2671 2672 2673
169 170 171 175 176 177 220 221 222 223 224 225 316 317 318 319 320 321 352 353 354 355 356 357 376 377 378 379 380 381 553 554 555 559 560 561 1135 1136 1137 2671 2672 2673
172 173 174 178 179 180 217 218 219 226 227 228 313 314 315 322 323 324 349 350 351 358 359 360 373 374 375 382 383 384 556 557 558 562 563 564 1138 1139 1140 2674 2675 2676
172 173 174 178 179 180 217 218 219 226 227 228 313 314 315 322 323 324 349 350 351 358 359 360 373 374 375 382 383 384 556 557 558 562 563 564 1138 1139 1140 2674 2675 2676
172 173 174 178 179 180 217 218 219 226 227 228 313 314 315 322 323 324 349 350 351 358 359 360 373 374 375 382 383 384 556 557 558 562 563 564 1138 1139 1140 2674 2675 2676
181 182 183 187 188 189 229 230 231 238 239 240 325 326 327 334 335 336 337 338 339 346 347 348 361 362 363 370 371 372 565 566 567 571 572 573 1141 1142 1143 2677 2678 2679
181 182 183 187 188 189 229 230 231 238 239 240 325 326 327 334 335 336 337 338 339 346 347 348 361 362 363 370 371 372 565 566 567 571 572 573 1141 1142 1143 2677 2678 2679
181 182 183 187 188 189 229 230 231 238 239 240 325 326 327 334 335 336 337 338 339 346 347 348 361 362 363 370 371 372 565 566 567 571 572 573 1141 1142 1143 2677 2678 2679
184 185 186 190 191 192 232 233 234 235 236 237 328 329 330 331 332 333 340 341 342 343 344 345 364 365 366 367 368 369 568 569 570 574 575 576 1144 1145 1146 2680 2681 2682
184 185 186 190 191 192 232 233 234 235 236 237 328 329 330 331 332 333 340 341 342 343 344 345 364 365 366 367 368 369 568 569 570 574 575 576 1144 1145 1146 2680 2681 2682
184 185 186 190 191 192 232 233 234 235 236 237 328 329 330 331 332 333 340 341 342 343 344 345 364 365 366 367 368 369 568 569 570 574 575 576 1144 1145 1146 2680 2681 2682
181 182 183 187 188 189 232 233 234 235 236 237 328 329 330 331 332 333 340 341 342 343 344 345 364 365 366 367 368 369 565 566 567 571 572 573 1147 1148 1149 2683 2684 2685
181 182 183 187 188 189 232 233 234 235 236 237 328 329 330 331 332 333 340 341 342 343 344 345 364 365 366 367 368 369 565 566 567 571 572 573 1147 1148 1149 2683 2684 2685
181 182 183 187 188 189 232 233 234 235 236 237 328 329 330 331 332 333 340 341 342 343 344 345 364 365 366 367 368 369 565 566 567 571 572 573 1147 1148 1149 2683 2684 2685
184 185 186 190 191 192 229 230 231 238 239 240 325 326 327 334 335 336 337 338 339 346 347 348 361 362 363 370 371 372 568 569 570 574 575 576 1150 1151 1152 2686 2687 2688
184 185 186 190 191 192 229 230 231 238 239 240 325 326 327 334 335 336 337 338 339 346 347 348 361 362 363 370 371 372 568 569 570 574 575 576 1150 1151 1152 2686 2687 2688
184 185 186 190 191 192 229 230 231 238 239 240 325 326 327 334 335 336 337 338 339 346 347 348 361 362 363 370 371 372 568 569 570 574 575 576 1150 1151 1152 2686 2687 2688
193 194 195 199 200 201 397 398 399 406 407 408 421 422 423 430 431 432 433 434 435 442 443 444 529 530 531 538 539 540 577 578 579 583 584 585 1153 1154 1155 2689 2690 2691
193 194 195 199 200 201 397 398 399 406 407 408 421 422 423 430 431 432 433 434 435 442 443 444 529 530 531 538 539 540 577 578 579 583 584 585 1153 1154 1155 2689 2690 2691
193 194 195 199 200 201 397 398 399 406 407 408 421 422 423 430 431 432 433 434 435 442 443 444 529 530 531 538 539 540 577 578 579 583 584 585 1153 1154 1155 2689 2690 2691
196 197 198 202 203 204 400 401 402 403 404 405 424 425 426 427 428 429 436 437 438 439 440 441 532 533 534 535 536 537 580 581 582 586 587 588 1156 1157 1158 2692 2693 2694
196 197 198 202 203 204 400 401 402 403 404 405 424 425 426 427 428 429 436 437 438 439 440 441 532 533 534 535 536 537 580 581 582 586 587 588 1156 1157 1158 2692 2693 2694
196 197 198 202 203 204 400 401 402 403 404 405 424 425 426 427 428 429 436 437 438 439 440 441 532 533 534 535 536 537 580 581 582 586 587 588 1156 1157 1158 2692 2693 2694
193 194 195 199 200 201 400 401 402 403 404 405 424 425 426 427 428 429 436 437 438 439 440 441 532 533 534 535 536 537 577 578 579 583 584 585 1159 1160 1161 2695 2696 2697
193 194 195 199 200 201 400 401 402 403 404 405 424 425 426 427 428 429 436 437 438 439 440 441 532 533 534 535 536 537 577 578 579 583 584 585 1159 1160 1161 2695 2696 2697
193 194 195 199 200 201 400 401 402 403 404 405 424 425 426 427 428 429 436 437 438 439 440 441 532 533 534 535 536 537 577 578 579 583 584 585 1159 1160 1161 2695 2696 2697
196 197 198 202 203 204 397 398 399 406 407 408 421 422 423 430 431 432 433 434 435 442 443 444 529 530 531 538 539 540 580 581 582 586 587 588 1162 1163 1164 2698 2699 2700
196 197 198 202 203 204 397 398 399 406 407 408 421 422 423 430 431 432 433 434 435 442 443 444 529 530 531 538 539 540 580 581 582 586 587 588 1162 1163 1164 2698 2699 2700
196 197 198 202 203 204 397 398 399 406 407 408 421 422 423 430 431 432 433 434 435 442 443 444 529 530 531 538 539 540 580 581 582 586 587 588 1162 1163 1164 2698 2699 2700
205 206 207 211 212 213 385 386 387 394 395 396 409 410 411 418 419 420 445 446 447 454 455 456 541 542 543 550 551 552 589 590 591 595 596 597 1165 1166 1167 2701 2702 2703
205 206 207 211 212 213 385 386 387 394 395 396 409 410 411 418 419 420 445 446 447 454 455 456 541 542 543 550 551 552 589 590 591 595 596 597 1165 1166 1167 2701 2702 2703
205 206 207 211 212 213 385 386 387 394 395 396 409 410 411 418 419 420 445 446 447 454 455 456 541 542 543 550 551 552 589 590 591 595 596 597 1165 1166 1167 2701 2702 2703
208 209 210 214 215 216 388 389 390 391 392 393 412 413 414 415 416 417 448 449 450 451 452 453 544 545 546 547 548 549 592 593 594 598 599 600 1168 1169 1170 2704 2705 2706
208 209 210 214 215 216 388 389 390 391 392 393 412 413 414 415 416 417 448 449 450 451 452 453 544 545 546 547 548 549 592 593 594 598 599 600 1168 1169 1170 2704 2705 2706
208 209 210 214 215 216 388 389 390 391 392 393 412 413 414 415 416 417 448 449 450 451 452 453 544 545 546 547 548 549 592 593 594 598 599 600 1168 1169 1170 2704 2705 2706
205 206 207 211 212 213 388 389 390 391 392 393 412 413 414 415 416 417 448 449 450 451 452 453 544 545 546 547 548 549 589 590 591 595 596 597 1171 1172 1173 2707 2708 2709
205 206 207 211 212 213 388 389 390 391 392 393 412 413 414 415 416 417 448 449 450 451 452 453 544 545 546 547 548 549 589 590 591 595 596 597 1171 1172 1173 2707 2708 2709
205 206 207 211 212 213 388 389 390 391 392 393 412 413 414 415 416 417 448 449 450 451 452 453 544 545 546 547 548 549 589 590 591 595 596 597 1171 1172 1173 2707 2708 2709
208 209 210 214 215 216 385 386 387 394 395 396 409 410 411 418 419 420 445 446 447 454 455 456 541 542 543 550 551 552 592 593 594 598 599 600 1174 1175 1176 2710 2711 2712
208 209 210 214 215 216 385 386 387 394 395 396 409 410 411 418 419 420 445 446 447 454 455 456 541 542 543 550 551 552 592 593 594 598 599 600 1174 1175 1176 2710 2711 2712
208 209 210 214 215 216 385 386 387 394 395 396 409 410 411 418 419 420 445 446 447 454 455 456 541 542 543 550 551 552 592 593 594 598 599 600 1174 1175 1176 2710 2711 2712
217 218 219 223 224 225 397 398 399 406 407 408 421 422 423 430 431 432 457 458 459 466 467 468 553 554 555 562 563 564 601 602 603 607 608 609 1177 1178 1179 2713 2714 2715
217 218 219 223 224 225 397 398 399 406 407 408 421 422 423 430 431 432 457 458 459 466 467 468 553 554 555 562 563 564 601 602 603 607 608 609 1177 1178 1179 2713 2714 2715
217 218 219 223 224 225 397 398 399 406 407 408 421 422 423 430 431 432 457 458 459 466 467 468 553 554 555 562 563 564 601 602 603 607 608 609 1177 1178 1179 2713 2714 2715
220 221 222 226 227 228 400 401 402 403 404 405 424 425 426 427 428 429 460 461 462 463 464 465 556 557 558 559 560 561 604 605 606 610 611 612 1180 1181 1182 2716 2717 2718
220 221 222 226 227 228 400 401 402 403 404 405 424 425 426 427 428 429 460 461 462 463 464 465 556 557 558 559 560 561 604 605 606 610 611 612 1180 1181 1182 2716 2717 2718
220 221 222 226 227 228 400 401 402 403 404 405 424 425 426 427 428 429 460 461 462 463 464 465 556 557 558 559 560 561 604 605 606 610 611 612 1180 1181 1182 2716 2717 2718
217 218 219 223 224 225 400 401 402 403 404 405 424 425 426 427 428 429 460 461 462 463 464 465 556 557 558 559 560 561 601 602 603 607 608 609 1183 1184 1185 2719 2720 2721
217 218 219 223 224 225 400 401 402 403 404 405 424 425 426 427 428 429 460 461 462 463 464 465 556 557 558 559 560 561 601 602 603 607 608 609 1183 1184 1185 2719 2720 2721
217 218 219 223 224 225 400 401 402 403 404 405 424 425 426 427 428 429 460 461 462 463 464 465 556 557 558 559 560 561 601 602 603 607 608 609 1183 1184 1185 2719 2720 2721
220 221 222 226 227 228 397 398 399 406 407 408 421 422 423 430 431 432 457 458 459 466 467 468 553 554 555 562 563 564 604 605 606 610 611 612 1186 1187 1188 2722 2723 2724
220 221 222 226 227 228 397 398 399 406 407 408 421 422 423 430 431 432 457 458 459 466 467 468 553 554 555 562 563 564 604 605 606 610 611 612 1186 1187 1188 2722 2723 2724
220 221 222 226 227 228 397 398 399 406 407 408 421 422 423 430 431 432 457 458 459 466 467 468 553 554 555 562 563 564 604 605 606 610 611 612 1186 1187 1188 2722 2723 2724
229 230 231 235 236 237 385 386 387 394 395 396 409 410 411 418 419 420 469 470 471 478 479 480 565 566 567 574 575 576 613 614 615 619 620 621 1189 1190 1191 2725 2726 2727
229 230 231 235 236 237 385 386 387 394 395 396 409 410 411 418 419 420 469 470 471 478 479 480 565 566 567 574 575 576 613 614 615 619 620 621 1189 1190 1191 2725 2726 2727
229 230 231 235 236 237 385 386 387 394 395 396 409 410 411 418 419 420 469 470 471 478 479 480 565 566 567 574 575 576 613 614 615 619 620 621 1189 1190 1191 2725 2726 2727
232 233 234 238 239 240 388 389 390 391 392 393 412 413 414 415 416 417 472 473 474 475 476 477 568 569 570 571 572 573 616 617 618 622 623 624 1192 1193 1194 2728 2729 2730
232 233 234 238 239 240 388 389 390 391 392 393 412 413 414 415 416 417 472 473 474 475 476 477 568 569 570 571 572 573 616 617 618 622 623 624 1192 1193 1194 2728 2729 2730
232 233 234 238 239 240 388 389 390 391 392 393 412 413 414 415 416 417 472 473 474 475 476 477 568 569 570 571 572 573 616 617 618 622 623 624 1192 1193 1194 2728 2729 2730
229 230 231 235 236 237 388 389 390 391 392 393 412 413 414 415 416 417 472 473 474 475 476 477 568 569 570 571 572 573 613 614 615 619 620 621 1195 1196 1197 2731 2732 2733
229 230 231 235 236 237 388 389 390 391 392 393 412 413 414 415 416 417 472 473 474 475 476 477 568 569 570 571 572 573 613 614 615 619 620 621 1195 1196 1197 2731 2732 2733
229 230 231 235 236 237 388 389 390 391 392 393 412 413 414 415 416 417 472 473 474 475 476 477 568 569 570 571 572 573 613 614 615 619 620 621 1195 1196 1197 2731 2732 2733
232 233 234 238 239 240 385 386 387 394 395 396 409 410 411 418 419 420 469 470 471 478 479 480 565 566 567 574 575 576 616 617 618 622 623 624 1198 1199 1200 2734 2735 2736
232 233 234 238 239 240 385 386 387 394 395 396 409 410 411 418 419 420 469 470 471 478 479 480 565 566 567 574 575 576 616 617 618 622 623 624 1198 1199 1200 2734 2735 2736
232 233 234 238 239 240 385 386 387 394 395 396 409 410 411 418 419 420 469 470 471 478 479 480 565 566 567 574 575 576 616 617 618 622 623 624 1198 1199 1200 2734 2735 2736
241 242 243 247 248 249 385 386 387 394 395 396 445 446 447 454 455 456 469 470 471 478 479 480 481 482 483 490 491 492 625 626 627 631 632 633 1201 1202 1203 2737 2738 2739
241 242 243 247 248 249 385 386 387 394 395 396 445 446 447 454 455 456 469 470 471 478 479 480 481 482 483 490 491 492 625 626 627 631 632 633 1201 1202 1203 2737 2738 2739
241 242 243 247 248 249 385 386 387 394 395 396 445 446 447 454 455 456 469 470 471 478 479 480 481 482 483 490 491 492 625 626 627 631 632 633 1201 1202 1203 2737 2738 2739
244 245 246 250 251 252 388 389 390 391 392 393 448 449 450 451 452 453 472 473 474 475 476 477 484 485 486 487 488 489 628 629 630 634 635 636 1204 1205 1206 2740 2741 2742
244 245 246 250 251 252 388 389 390 391 392 393 448 449 450 451 452 453 472 473 474 475 476 477 484 485 486 487 488 489 628 629 630 634 635 636 1204 1205 1206 2740 2741 2742
244 245 246 250 251 252 388 389 390 391 392 393 448 449 450 451 452 453 472 473 474 475 476 477 484 485 486 487 488 489 628 629 630 634 635 636 1204 1205 1206 2740 2741 2742
241 242 243 247 248 249 388 389 390 391 392 393 448 449 450 451 452 453 472 473 474 475 476 477 484 485 486 487 488 489 625 626 627 631 632 633 1207 1208 1209 2743 2744 2745
241 242 243 247 248 249 388 389 390 391 392 393 448 449 450 451 452 453 472 473 474 475 476 477 484 485 486 487 488 489 625 626 627 631 632 633 1207 1208 1209 2743 2744 2745
241 242 243 247 248 249 388 389 390 391 392 393 448 449 450 451 452 453 472 473 474 475 476 477 484 485 486 487 488 489 625 626 627 631 632 633 1207 1208 1209 2743 2744 2745
244 245 246 250 251 252 385 386 387 394 395 396 445 446 447 454 455 456 469 470 471 478 479 480 481 482 483 490 491 492 628 629 630 634 635 636 1210 1211 1212 2746 2747 2748
244 245 246 250 251 252 385 386 387 394 395 396 445 446 447 454 455 456 469 470 471 478 479 480 481 482 483 490 491 492 628 629 630 634 635 636 1210 1211 1212 2746 2747 2748
244 245 246 250 251 252 385 386 387 394 395 396 445 446 447 454 455 456 469 470 471 478 479 480 481 482 483 490 491 492 628 629 630 634 635 636 1210 1211 1212 2746 2747 2748
253 254 255 259 260 261 397 398 399 406 407 408 433 434 435 442 443 444 457 458 459 466 467 468 493 494 495 502 503 504 637 638 639 643 644 645 1213 1214 1215 2749 2750 2751
253 254 255 259 260 261 397 398 399 406 407 408 433 434 435 442 443 444 457 458 459 466 467 468 493 494 495 502 503 504 637 638 639 643 644 645 1213 1214 1215 2749 2750 2751
253 254 255 259 260 261 397 398 399 406 407 408 433 434 435 442 443 444 457 458 459 466 467 468 493 494 495 502 503 504 637 638 639 643 644 645 1213 1214 1215 2749 2750 2751
256 257 258 262 263 264 400 401 402 403 404 405 436 437 438 439 440 441 460 461 462 463 464 465 496 497 498 499 500 501 640 641 642 646 647 648 1216 1217 1218 2752 2753 2754
256 257 258 262 263 264 400 401 402 403 404 405 436 437 438 439 440 441 460 461 462 463 464 465 496 497 498 499 500 501 640 641 642 646 647 648 1216 1217 1218 2752 2753 2754
256 257 258 262 263 264 400 401 402 403 404 405 436 437 438 439 440 441 460 461 462 463 464 465 496 497 498 499 500 501 640 641 642 646 647 648 1216 1217 1218 2752 2753 2754
253 254 255 259 260 261 400 401 402 403 404 405 436 437 438 439 440 441 460 461 462 463 464 465 496 497 498 499 500 501 637 638 639 643 644 645 1219 1220 1221 2755 2756 2757
253 254 255 259 260 261 400 401 402 403 404 405 436 437 438 439 440 441 460 461 462 463 464 465 496 497 498 499 500 501 637 638 639 643 644 645 1219 1220 1221 2755 2756 2757
253 254 255 259 260 261 400 401 402 403 404 405 436 437 438 439 440 441 460 461 462 463 464 465 496 497 498 499 500 501 637 638 639 643 644 645 1219 1220 1221 2755 2756 2757
256 257 258 262 263 264 397 398 399 406 407 408 433 434 435 442 443 444 457 458 459 466 467 468 493 494 495 502 503 504 640 641 642 646 647 648 1222 1223 1224 2758 2759 2760
256 257 258 262 263 264 397 398 399 406 407 408 433 434 435 442 443 444 457 458 459 466 467 468 493 494 495 502 503 504 640 641 642 646 647 648 1222 1223 1224 2758 2759 2760
256 257 258 262 263 264 397 398 399 406 407 408 433 434 435 442 443 444 457 458 459 466 467 468 493 494 495 502 503 504 640 641 642 646 647 648 1222 1223 1224 2758 2759 2760
265 266 267 271 272 273 409 410 411 418 419 420 445 446 447 454 455 456 469 470 471 478 479 480 505 506 507 514 515 516 649 650 651 655 656 657 1225 1226 1227 2761 2762 2763
265 266 267 271 272 273 409 410 411 418 419 420 445 446 447 454 455 456 469 470 471 478 479 480 505 506 507 514 515 516 649 650 651 655 656 657 1225 1226 1227 2761 2762 2763
265 266 267 271 272 273 409 410 411 418 419 420 445 446 447 454 455 456 469 470 471 478 479 480 505 506 507 514 515 516 649 650 651 655 656 657 1225 1226 1227 2761 2762 2763
268 269 270 274 275 276 412 413 414 415 416 417 448 449 450 451 452 453 472 473 474 475 476 477 508 509 510 511 512 513 652 653 654 658 659 660 1228 1229 1230 2764 2765 2766
268 269 270 274 275 276 412 413 414 415 416 417 448 449 450 451 452 453 472 473 474 475 476 477 508 509 510 511 512 513 652 653 654 658 659 660 1228 1229 1230 2764 2765 2766
268 269 270 274 275 276 412 413 414 415 416 417 448 449 450 451 452 453 472 473 474 475 476 477 508 509 510 511 512 513 652 653 654 658 659 660 1228 1229 1230 2764 2765 2766
265 266 267 271 272 273 412 413 414 415 416 417 448 449 450 451 452 453 472 473 474 475 476 477 508 509 510 511 512 513 649 650 651 655 656 657 1231 1232 1233 2767 2768 2769
265 266 267 271 272 273 412 413 414 415 416 417 448 449 450 451 452 453 472 473 474 475 476 477 508 509 510 511 512 513 649 650 651 655 656 657 1231 1232 1233 2767 2768 2769
265 266 267 271 272 273 412 413 414 415 416 417 448 449 450 451 452 453 472 473 474 475 476 477 508 509 510 511 512 513 649 650 651 655 656 657 1231 1232 1233 2767 2768 2769
268 269 270 274 275 276 409 410 411 418 419 420 445 446 447 454 455 456 469 470 471 478 479 480 505 506 507 514 515 516 652 653 654 658 659 660 1234 1235 1236 2770 2771 2772
268 269 270 274 275 276 409 410 411 418 419 420 445 446 447 454 455 456 469 470 471 478 479 480 505 506 507 514 515 516 652 653 654 658 659 660 1234 1235 1236 2770 2771 2772
268 269 270 274 275 276 409 410 411 418 419 420 445 446 447 454 455 456 469 470 471 478 479 480 505 506 507 514 515 516 652 653 654 658 659 660 1234 1235 1236 2770 2771 2772
277 278 279 283 284 285 421 422 423 430 431 432 433 434 435 442 443 444 457 458 459 466 467 468 517 518 519 526 527 528 661 662 663 667 668 669 1237 1238 1239 2773 2774 2775
277 278 279 283 284 285 421 422 423 430 431 432 433 434 435 442 443 444 457 458 459 466 467 468 517 518 519 526 527 528 661 662 663 667 668 669 1237 1238 1239 2773 2774 2775
277 278 279 283 284 285 421 422 423 430 431 432 433 434 435 442 443 444 457 458 459 466 467 468 517 518 519 526 527 528 661 662 663 667 668 669 1237 1238 1239 2773 2774 2775
280 281 282 286 287 288 424 425 426 427 428 429 436 437 438 439 440 441 460 461 462 463 464 465 520 521 522 523 524 525 664 665 666 670 671 672 1240 1241 1242 2776 2777 2778
280 281 282 286 287 288 424 425 426 427 428 429 436 437 438 439 440 441 460 461 462 463 464 465 520 521 522 523 524 525 664 665 666 670 671 672 1240 1241 1242 2776 2777 2778
280 281 282 286 287 288 424 425 426 427 428 429 436 437 438 439 440 441 460 461 462 463 464 465 520 521 522 523 524 525 664 665 666 670 671 672 1240 1241 1242 2776 2777 2778
277 278 279 283 284 285 424 425 426 427 428 429 436 437 438 439 440 441 460 461 462 463 464 465 520 521 522 523 524 525 661 662 663 667 668 669 1243 1244 1245 2779 2780 2781
277 278 279 283 284 285 424 425 426 427 428 429 436 437 438 439 440 441 460 461 462 463 464 465 520 521 522 523 524 525 661 662 663 667 668 669 1243 1244 1245 2779 2780 2781
277 278 279 283 284 285 424 425 426 427 428 429 436 437 438 439 440 441 460 461 462 463 464 465 520 521 522 523 524 525 661 662 663 667 668 669 1243 1244 1245 2779 2780 2781
280 281 282 286 287 288 421 422 423 430 431 432 433 434 435 442 443 444 457 458 459 466 467 468 517 518 519 526 527 528 664 665 666 670 671 672 1246 1247 1248 2782 2783 2784
280 281 282 286 287 288 421 422 423 430 431 432 433 434 435 442 443 444 457 458 459 466 467 468 517 518 519 526 527 528 664 665 666 670 671 672 1246 1247 1248 2782 2783 2784
280 281 282 286 287 288 421 422 423 430 431 432 433 434 435 442 443 444 457 458 459 466 467 468 517 518 519 526 527 528 664 665 666 670 671 672 1246 1247 1248 2782 2783 2784
289 290 291 295 296 297 433 434 435 442 443 444 493 494 495 502 503 504 517 518 519 526 527 528 529 530 531 538 539 540 673 674 675 679 680 681 1249 1250 1251 2785 2786 2787
289 290 291 295 296 297 433 434 435 442 443 444 493 494 495 502 503 504 517 518 519 526 527 528 529 530 531 538 539 540 673 674 675 679 680 681 1249 1250 1251 2785 2786 2787
289 290 291 295 296 297 433 434 435 442 443 444 493 494 495 502 503 504 517 518 519 526 527 528 529 530 531 538 539 540 673 674 675 679 680 681 1249 1250 1251 2785 2786 2787
292 293 294 298 299 300 436 437 438 439 440 441 496 497 498 499 500 501 520 521 522 523 524 525 532 533 534 535 536 537 676 677 678 682 683 684 1252 1253 1254 2788 2789 2790
292 293 294 298 299 300 436 437 438 439 440 441 496 497 498 499 500 501 520 521 522 523 524 525 532 533 534 535 536 537 676 677 678 682 683 684 1252 1253 1254 2788 2789 2790
292 293 294 298 299 300 436 437 438 439 440 441 496 497 498 499 500 501 520 521 522 523 524 525 532 533 534 535 536 537 676 677 678 682 683 684 1252 1253 1254 2788 2789 2790
289 290 291 295 296 297 436 437 438 439 440 441 496 497 498 499 500 501 520 521 522 523 524 525 532 533 534 535 536 537 673 674 675 679 680 681 1255 1256 1257 2791 2792 2793
289 290 291 295 296 297 436 437 438 439 440 441 496 497 498 499 500 501 520 521 522 523 524 525 532 533 534 535 536 537 673 674 675 679 680 681 1255 1256 1257 2791 2792 2793
289 290 291 295 296 297 436 437 438 439 440 441 496 497 498 499 500 501 520 521 522 523 524 525 532 533 534 535 536 537 673 674 675 679 680 681 1255 1256 1257 2791 2792 2793
292 293 294 298 299 300 433 434 435 442 443 444 493 494 495 502 503 504 517 518 519 526 527 528 529 530 531 538 539 540 676 677 678 682 683 684 1258 1259 1260 2794 2795 2796
292 293 294 298 299 300 433 434 435 442 443 444 493 494 495 502 503 504 517 518 519 526 527 528 529 530 531 538 539 540 676 677 678 682 683 684 1258 1259 1260 2794 2795 2796
292 293 294 298 299 300 433 434 435 442 443 444 493 494 495 502 503 504 517 518 519 526 527 528 529 530 531 538 539 540 676 677 678 682 683 684 1258 1259 1260 2794 2795 2796
301 302 303 307 308 309 445 446 447 454 455 456 481 482 483 490 491 492 505 506 507 514 515 516 541 542 543 550 551 552 685 686 687 691 692 693 1261 1262 1263 2797 2798 2799
301 302 303 307 308 309 445 446 447 454 455 456 481 482 483 490 491 492 505 506 507 514 515 516 541 542 543 550 551 552 685 686 687 691 692 693 1261 1262 1263 2797 2798 2799
301 302 303 307 308 309 445 446 447 454 455 456 481 482 483 490 491 492 505 506 507 514 515 516 541 542 543 550 551 552 685 686 687 691 692 693 1261 1262 1263 2797 2798 2799
304 305 306 310 311 312 448 449 450 451 452 453 484 485 486 487 488 489 508 509 510 511 512 513 544 545 546 547 548 549 688 689 690 694 695 696 1264 1265 1266 2800 2801 2802
304 305 306 310 311 312 448 449 450 451 452 453 484 485 486 487 488 489 508 509 510 511 512 513 544 545 546 547 548 549 688 689 690 694 695 696 1264 1265 1266 2800 2801 2802
304 305 306 310 311 312 448 449 450 451 452 453 484 485 486 487 488 489 508 509 510 511 512 513 544 545 546 547 548 549 688 689 690 694 695 696 1264 1265 1266 2800 2801 2802
301 302 303 307 308 309 448 449 450 451 452 453 484 485 486 487 488 489 508 509 510 511 512 513 544 545 546 547 548 549 685 686 687 691 692 693 1267 1268 1269 2803 2804 2805
301 302 303 307 308 309 448 449 450 451 452 453 484 485 486 487 488 489 508 509 510 511 512 513 544 545 546 547 548 549 685 686 687 691 692 693 1267 1268 1269 2803 2804 2805
301 302 303 307 308 309 448 449 450 451 452 453 484 485 486 487 488 489 508 509 510 511 512 513 544 545 546 547 548 549 685 686 687 691 692 693 1267 1268 1269 2803 2804 2805
304 305 306 310 311 312 445 446 447 454 455 456 481 482 483 490 491 492 505 506 507 514 515 516 541 542 543 550 551 552 688 689 690 694 695 696 1270 1271 1272 2806 2807 2808
304 305 306 310 311 312 445 446 447 454 455 456 481 482 483 490 491 492 505 506 507 514 515 516 541 542 543 550 551 552 688 689 690 694 695 696 1270 1271 1272 2806 2807 2808
304 305 306 310 311 312 445 446 447 454 455 456 481 482 483 490 491 492 505 506 507 514 515 516 541 542 543 550 551 552 688 689 690 694 695 696 1270 1271 1272 2806 2807 2808
313 314 315 319 320 321 457 458 459 466 467 468 493 494 495 502 503 504 517 518 519 526 527 528 553 554 555 562 563 564 697 698 699 703 704 705 1273 1274 1275 2809 2810 2811
313 314 315 319 320 321 457 458 459 466 467 468 493 494 495 502 503 504 517 518 519 526 527 528 553 554 555 562 563 564 697 698 699 703 704 705 1273 1274 1275 2809 2810 2811
313 314 315 319 320 321 457 458 459 466 467 468 493 494 495 502 503 504 517 518 519 526 527 528 553 554 555 562 563 564 697 698 699 703 704 705 1273 1274 1275 2809 2810 2811
316 317 318 322 323 324 460 461 462 463 464 465 496 497 498 499 500 501 520 521 522 523 524 525 556 557 558 559 560 561 700 701 702 706 707 708 1276 1277 1278 2812 2813 2814
316 317 318 322 323 324 460 461 462 463 464 465 496 497 498 499 500 501 520 521 522 523 524 525 556 557 558 559 560 561 700 701 702 706 707 708 1276 1277 1278 2812 2813 2814
316 317 318 322 323 324 460 461 462 463 464 465 496 497 498 499 500 501 520 521 522 523 524 525 556 557 558 559 560 561 700 701 702 706 707 708 1276 1277 1278 2812 2813 2814
313 314 315 319 320 321 460 461 462 463 464 465 496 497 498 499 500 501 520 521 522 523 524 525 556 557 558 559 560 561 697 698 699 703 704 705 1279 1280 1281 2815 2816 2817
313 314 315 319 320 321 460 461 462 463 464 465 496 497 498 499 500 501 520 521 522 523 524 525 556 557 558 559 560 561 697 698 699 703 704 705 1279 1280 1281 2815 2816 2817
313 314 315 319 320 321 460 461 462 463 464 465 496 497 498 499 500 501 520 521 522 523 524 525 556 557 558 559 560 561 697 698 699 703 704 705 1279 1280 1281 2815 2816 2817
316 317 318 322 323 324 457 458 459 466 467 468 493 494 495 502 503 504 517 518 519 526 527 528 553 554 555 562 563 564 700 701 702 706 707 708 1282 1283 1284 2818 2819 2820
316 317 318 322 323 324 457 458 459 466 467 468 493 494 495 502 503 504 517 518 519 526 527 528 553 554 555 562 563 564 700 701 702 706 707 708 1282 1283 1284 2818 2819 2820
316 317 318 322 323 324 457 458 459 466 467 468 493 494 495 502 503 504 517 518 519 526 527 528 553 554 555 562 563 564 700 701 702 706 707 708 1282 1283 1284 2818 2819 2820
325 326 327 331 332 333 469 470 471 478 479 480 481 482 483 490 491 492 505 506 507 514 515 516 565 566 567 574 575 576 709 710 711 715 716 717 1285 1286 1287 2821 2822 2823
325 326 327 331 332 333 469 470 471 478 479 480 481 482 483 490 491 492 505 506 507 514 515 516 565 566 567 574 575 576 709 710 711 715 716 717 1285 1286 1287 2821 2822 2823
325 326 327 331 332 333 469 470 471 478 479 480 481 482 483 490 491 492 505 506 507 514 515 516 565 566 567 574 575 576 709 710 711 715 716 717 1285 1286 1287 2821 2822 2823
328 329 330 334 335 336 472 473 474 475 476 477 484 485 486 487 488 489 508 509 510 511 512 513 568 569 570 571 572 573 712 713 714 718 719 720 1288 1289 1290 2824 2825 2826
328 329 330 334 335 336 472 473 474 475 476 477 484 485 486 487 488 489 508 509 510 511 512 513 568 569 570 571 572 573 712 713 714 718 719 720 1288 1289 1290 2824 2825 2826
328 329 330 334 335 336 472 473 474 475 476 477 484 485 486 487 488 489 508 509 510 511 512 513 568 569 570 571 572 573 712 713 714 718 719 720 1288 1289 1290 2824 2825 2826
325 326 327 331 332 333 472 473 474 475 476 477 484 485 486 487 488 489 508 509 510 511 512 513 568 569 570 571 572 573 709 710 711 715 716 717 1291 1292 1293 2827 2828 2829
325 326 327 331 332 333 472 473 474 475 476 477 484 485 486 487 488 489 508 509 510 511 512 513 568 569 570 571 572 573 709 710 711 715 716 717 1291 1292 1293 2827 2828 2829
325 326 327 331 332 333 472 473 474 475 476 477 484 485 486 487 488 489 508 509 510 511 512 513 568 569 570 571 572 573 709 710 711 715 716 717 1291 1292 1293 2827 2828 2829
328 329 330 334 335 336 469 470 471 478 479 480 481 482 483 490 491 492 505 506 507 514 515 516 565 566 567 574 575 576 712 713 714 718 719 720 1294 1295 1296 2830 2831 2832
328 329 330 334 335 336 469 470 471 478 479 480 481 482 483 490 491 492 505 506 507 514 515 516 565 566 567 574 575 576 712 713 714 718 719 720 1294 1295 1296 2830 2831 2832
328 329 330 334 335 336 469 470 471 478 479 480 481 482 483 490 491 492 505 506 507 514 515 516 565 566 567 574 575 576 712 713 714 718 719 720 1294 1295 1296 2830 2831 2832
337 338 339 343 344 345 385 386 387 394 395 396 481 482 483 490 491 492 541 542 543 550 551 552 565 566 567 574 575 576 721 722 723 727 728 729 1297 1298 1299 2833 2834 2835
337 338 339 343 344 345 385 386 387 394 395 396 481 482 483 490 491 492 541 542 543 550 551 552 565 566 567 574 575 576 721 722 723 727 728 729 1297 1298 1299 2833 2834 2835
337 338 339 343 344 345 385 386 387 394 395 396 481 482 483 490 491 492 541 542 543 550 551 552 565 566 567 574 575 576 721 722 723 727 728 729 1297 1298 1299 2833 2834 2835
340 341 342 346 347 348 388 389 390 391 392 393 484 485 486 487 488 489 544 545 546 547 548 549 568 569 570 571 572 573 724 725 726 730 731 732 1300 1301 1302 2836 2837 2838
340 341 342 346 347 348 388 389 390 391 392 393 484 485 486 487 488 489 544 545 546 547 548 549 568 569 570 571 572 573 724 725 726 730 731 732 1300 1301 1302 2836 2837 2838
340 341 342 346 347 348 388 389 390 391 392 393 484 485 486 487 488 489 544 545 546 547 548 549 568 569 570 571 572 573 724 725 726 730 731 732 1300 1301 1302 2836 2837 2838
337 338 339 343 344 345 388 389 390 391 392 393 484 485 486 487 488 489 544 545 546 547 548 549 568 569 570 571 572 573 721 722 723 727 728 729 1303 1304 1305 2839 2840 2841
337 338 339 343 344 345 388 389 390 391 392 393 484 485 486 487 488 489 544 545 546 547 548 549 568 569 570 571 572 573 721 722 723 727 728 729 1303 1304 1305 2839 2840 2841
337 338 339 343 344 345 388 389 390 391 392 393 484 485 486 487 488 489 544 545 546 547 548 549 568 569 570 571 572 573 721 722 723 727 728 729 1303 1304 1305 2839 2840 2841
340 341 342 346 347 348 385 386 387 394 395 396 481 482 483 490 491 492 541 542 543 550 551 552 565 566 567 574 575 576 724 725 726 730 731 732 1306 1307 1308 2842 2843 2844
340 341 342 346 347 348 385 386 387 394 395 396 481 482 483 490 491 492 541 542 543 550 551 552 565 566 567 574 575 576 724 725 726 730 731 732 1306 1307 1308 2842 2843 2844
340 341 342 346 347 348 385 386 387 394 395 396 481 482 483 490 491 492 541 542 543 550 551 552 565 566 567 574 575 576 724 725 726 730 731 732 1306 1307 1308 2842 2843 2844
349 350 351 355 356 357 397 398 399 406 407 408 493 494 495 502 503 504 529 530 531 538 539 540 553 554 555 562 563 564 733 734 735 739 740 741 1309 1310 1311 2845 2846 2847
349 350 351 355 356 357 397 398 399 406 407 408 493 494 495 502 503 504 529 530 531 538 539 540 553 554 555 562 563 564 733 734 735 739 740 741 1309 1310 1311 2845 2846 2847
349 350 351 355 356 357 397 398 399 406 407 408 493 494 495 502 503 504 529 530 531 538 539 540 553 554 555 562 563 564 733 734 735 739 740 741 1309 1310 1311 2845 2846 2847
352 353 354 358 359 360 400 401 402 403 404 405 496 497 498 499 500 501 532 533 534 535 536 537 556 557 558 559 560 561 736 737 738 742 743 744 1312 1313 1314 2848 2849 2850
352 353 354 358 359 360 400 401 402 403 404 405 496 497 498 499 500 501 532 533 534 535 536 537 556 557 558 559 560 561 736 737 738 742 743 744 1312 1313 1314 2848 2849 2850
352 353 354 358 359 360 400 401 402 403 404 405 496 497 498 499 500 501 532 533 534 535 536 537 556 557 558 559 560 561 736 737 738 742 743 744 1312 1313 1314 2848 2849 2850
349 350 351 355 356 357 400 401 402 403 404 405 496 497 498 499 500 501 532 533 534 535 536 537 556 557 558 559 560 561 733 734 735 739 740 741 1315 1316 1317 2851 2852 2853
349 350 351 355 356 357 400 401 402 403 404 405 496 497 498 499 500 501 532 533 534 535 536 537 556 557 558 559 560 561 733 734 735 739 740 741 1315 1316 1317 2851 2852 2853
349 350 351 355 356 357 400 401 402 403 404 405 496 497 498 499 500 501 532 533 534 535 536 537 556 557 558 559 560 561 733 734 735 739 740 741 1315 1316 1317 2851 2852 2853
352 353 354 358 359 360 397 398 399 406 407 408 493 494 495 502 503 504 529 530 531 538 539 540 553 554 555 562 563 564 736 737 738 742 743 744 1318 1319 1320 2854 2855 2856
352 353 354 358 359 360 397 398 399 406 407 408 493 494 495 502 503 504 529 530 531 538 539 540 553 554 555 562 563 564 736 737 738 742 743 744 1318 1319 1320 2854 2855 2856
352 353 354 358 359 360 397 398 399 406 407 408 493 494 495 502 503 504 529 530 531 538 539 540 553 554 555 562 563 564 736 737 738 742 743 744 1318 1319 1320 2854 2855 2856
361 362 363 367 368 369 409 410 411 418 419 420 505 506 507 514 515 516 541 542 543 550 551 552 565 566 567 574 575 576 745 746 747 751 752 753 1321 1322 1323 2857 2858 2859
361 362 363 367 368 369 409 410 411 418 419 420 505 506 507 514 515 516 541 542 543 550 551 552 565 566 567 574 575 576 745 746 747 751 752 753 1321 1322 1323 2857 2858 2859
361 362 363 367 368 369 409 410 411 418 419 420 505 506 507 514 515 516 541 542 543 550 551 552 565 566 567 574 575 576 745 746 747 751 752 753 1321 1322 1323 2857 2858 2859
364 365 366 370 371 372 412 413 414 415 416 417 508 509 510 511 512 513 544 545 546 547 548 549 568 569 570 571 572 573 748 749 750 754 755 756 1324 1325 1326 2860 2861 2862
364 365 366 370 371 372 412 413 414 415 416 417 508 509 510 511 512 513 544 545 546 547 548 549 568 569 570 571 572 573 748 749 750 754 755 756 1324 1325 1326 2860 2861 2862
364 365 366 370 371 372 412 413 414 415 416 417 508 509 510 511 512 513 544 545 546 547 548 549 568 569 570 571 572 573 748 749 750 754 755 756 1324 1325 1326 2860 2861 2862
361 362 363 367 368 369 412 413 414 415 416 417 508 509 510 511 512 513 544 545 546 547 548 549 568 569 570 571 572 573 745 746 747 751 752 753 1327 1328 1329 2863 2864 2865
361 362 363 367 368 369 412 413 414 415 416 417 508 509 510 511 512 513 544 545 546 547 548 549 568 569 570 571 572 573 745 746 747 751 752 753 1327 1328 1329 2863 2864 2865
361 362 363 367 368 369 412 413 414 415 416 417 508 509 510 511 512 513 544 545 546 547 548 549 568 569 570 571 572 573 745 746 747 751 752 753 1327 1328 1329 2863 2864 2865
364 365 366 370 371 372 409 410 411 418 419 420 505 506 507 514 515 516 541 542 543 550 551 552 565 566 567 574 575 576 748 749 750 754 755 756 1330 1331 1332 2866 2867 2868
364 365 366 370 371 372 409 410 411 418 419 420 505 506 507 514 515 516 541 542 543 550 551 552 565 566 567 574 575 576 748 749 750 754 755 756 1330 1331 1332 2866 2867 2868
364 365 366 370 371 372 409 410 411 418 419 420 505 506 507 514 515 516 541 542 543 550 551 552 565 566 567 574 575 576 748 749 750 754 755 756 1330 1331 1332 2866 2867 2868
373 374 375 379 380 381 421 422 423 430 431 432 517 518 519 526 527 528 529 530 531 538 539 540 553 554 555 562 563 564 757 758 759 763 764 765 1333 1334 1335 2869 2870 2871
373 374 375 379 380 381 421 422 423 430 431 432 517 518 519 526 527 528 529 530 531 538 539 540 553 554 555 562 563 564 757 758 759 763 764 765 1333 1334 1335 2869 2870 2871
373 374 375 379 380 381 421 422 423 430 431 432 517 518 519 526 527 528 529 530 531 538 539 540 553 554 555 562 563 564 757 758 759 763 764 765 1333 1334 1335 2869 2870 2871
376 377 378 382 383 384 424 425 426 427 428 429 520 521 522 523 524 525 532 533 534 535 536 537 556 557 558 559 560 561 760 761 762 766 767 768 1336 1337 1338 2872 2873 2874
376 377 378 382 383 384 424 425 426 427 428 429 520 521 522 523 524 525 532 533 534 535 536 537 556 557 558 559 560 561 760 761 762 766 767 768 1336 1337 1338 2872 2873 2874
376 377 378 382 383 384 424 425 426 427 428 429 520 521 522 523 524 525 532 533 534 535 536 537 556 557 558 559 560 561 760 761 762 766 767 768 1336 1337 1338 2872 2873 2874
373 374 375 379 380 381 424 425 426 427 428 429 520 521 522 523 524 525 532 533 534 535 536 537 556 557 558 559 560 561 757 758 759 763 764 765 1339 1340 1341 2875 2876 2877
373 374 375 379 380 381 424 425 426 427 428 429 520 521 522 523 524 525 532 533 534 535 536 537 556 557 558 559 560 561 757 758 759 763 764 765 1339 1340 1341 2875 2876 2877
373 374 375 379 380 381 424 425 426 427 428 429 520 521 522 523 524 525 532 533 534 535 536 537 556 557 558 559 560 561 757 758 759 763 764 765 1339 1340 1341 2875 2876 2877
376 377 378 382 383 384 421 422 423 430 431 432 517 518 519 526 527 528 529 530 531 538 539 540 553 554 555 562 563 564 760 761 762 766 767 768 1342 1343 1344 2878 2879 2880
376 377 378 382 383 384 421 422 423 430 431 432 517 518 519 526 527 528 529 530 531 538 539 540 553 554 555 562 563 564 760 761 762 766 767 768 1342 1343 1344 2878 2879 2880
376 377 378 382 383 384 421 422 423 430 431 432 517 518 519 526 527 528 529 530 531 538 539 540 553 554 555 562 563 564 760 761 762 766 767 768 1342 1343 1344 2878 2879 2880
1 2 3 7 8 9 385 386 387 391 392 393 589 590 591 598 599 600 613 614 615 622 623 624 625 626 627 634 635 636 721 722 723 730 731 732 1345 1346 1347 2881 2882 2883
1 2 3 7 8 9 385 386 387 391 392 393 589 590 591 598 599 600 613 614 615 622 623 624 625 626 627 634 635 636 721 722 723 730 731 732 1345 1346 1347 2881 2882 2883
1 2 3 7 8 9 385 386 387 391 392 393 589 590 591 598 599 600 613 614 615 622 623 624 625 626 627 634 635 636 721 722 723 730 731 732 1345 1346 1347 2881 2882 2883
4 5 6 10 11 12 388 389 390 394 395 396 592 593 594 595 596 597 616 617 618 619 620 621 628 629 630 631 632 633 724 725 726 727 728 729 1348 1349 1350 2884 2885 2886
4 5 6 10 11 12 388 389 390 394 395 396 592 593 594 595 596 597 616 617 618 619 620 621 628 629 630 631 632 633 724 725 726 727 728 729 1348 1349 1350 2884 2885 2886
4 5 6 10 11 12 388 389 390 394 395 396 592 593 594 595 596 597 616 617 618 619 620 621 628 629 630 631 632 633 724 725 726 727 728 729 1348 1349 1350 2884 2885 2886
1 2 3 7 8 9 385 386 387 391 392 393 592 593 594 595 596 597 616 617 618 619 620 621 628 629 630 631 632 633 724 725 726 727 728 729 1351 1352 1353 2887 2888 2889
1 2 3 7 8 9 385 386 387 391 392 393 592 593 594 595 596 597 616 617 618 619 620 621 628 629 630 631 632 633 724 725 726 727 728 729 1351 1352 1353 2887 2888 2889
1 2 3 7 8 9 385 386 387 391 392 393 592 593 594 595 596 597 616 617 618 619 620 621 628 629 630 631 632 633 724 725 726 727 728 729 1351 1352 1353 2887 2888 2889
4 5 6 10 11 12 388 389 390 394 395 396 589 590 591 598 599 600 613 614 615 622 623 624 625 626 627 634 635 636 721 722 723 730 731 732 1354 1355 1356 2890 2891 2892
4 5 6 10 11 12 388 389 390 394 395 396 589 590 591 598 599 600 613 614 615 622 623 624 625 626 627 634 635 636 721 722 723 730 731 732 1354 1355 1356 2890 2891 2892
4 5 6 10 11 12 388 389 390 394 395 396 589 590 591 598 599 600 613 614 615 622 623 624 625 626 627 634 635 636 721 722 723 730 731 732 1354 1355 1356 2890 2891 2892
13 14 15 19 20 21 397 398 399 403 404 405 577 578 579 586 587 588 601 602 603 610 611 612 637 638 639 646 647 648 733 734 735 742 743 744 1357 1358 1359 2893 2894 2895
13 14 15 19 20 21 397 398 399 403 404 405 577 578 579 586 587 588 601 602 603 610 611 612 637 638 639 646 647 648 733 734 735 742 743 744 1357 1358 1359 2893 2894 2895
13 14 15 19 20 21 397 398 399 403 404 405 577 578 579 586 587 588 601 602 603 610 611 612 637 638 639 646 647 648 733 734 735 742 743 744 1357 1358 1359 2893 2894 2895
16 17 18 22 23 24 400 401 402 406 407 408 580 581 582 583 584 585 604 605 606 607 608 609 640 641 642 643 644 645 736 737 738 739 740 741 1360 1361 1362 2896 2897 2898
16 17 18 22 23 24 400 401 402 406 407 408 580 581 582 583 584 585 604 605 606 607 608 609 640 641 642 643 644 645 736 737 738 739 740 741 1360 1361 1362 2896 2897 2898
16 17 18 22 23 24 400 401 402 406 407 408 580 581 582 583 584 585 604 605 606 607 608 609 640 641 642 643 644 645 736 737 738 739 740 741 1360 1361 1362 2896 2897 2898
13 14 15 19 20 21 397 398 399 403 404 405 580 581 582 583 584 585 604 605 606 607 608 609 640 641 642 643 644 645 736 737 738 739 740 741 1363 1364 1365 2899 2900 2901
13 14 15 19 20 21 397 398 399 403 404 405 580 581 582 583 584 585 604 605 606 607 608 609 640 641 642 643 644 645 736 737 738 739 740 741 1363 1364 1365 2899 2900 2901
13 14 15 19 20 21 397 398 399 403 404 405 580 581 582 583 584 585 604 605 606 607 608 609 640 641 642 643 644 645 736 737 738 739 740 741 1363 1364 1365 2899 2900 2901
16 17 18 22 23 24 400 401 402 406 407 408 577 578 579 586 587 588 601 602 603 610 611 612 637 638 639 646 647 648 733 734 735 742 743 744 1366 1367 1368 2902 2903 2904
16 17 18 22 23 24 400 401 402 406 407 408 577 578 579 586 587 588 601 602 603 610 611 612 637 638 639 646 647 648 733 734 735 742 743 744 1366 1367 1368 2902 2903 2904
16 17 18 22 23 24 400 401 402 406 407 408 577 578 579 586 587 588 601 602 603 610 611 612 637 638 639 646 647 648 733 734 735 742 743 744 1366 1367 1368 2902 2903 2904
25 26 27 31 32 33 409 410 411 415 416 417 589 590 591 598 599 600 613 614 615 622 623 624 649 650 651 658 659 660 745 746 747 754 755 756 1369 1370 1371 2905 2906 2907
25 26 27 31 32 33 409 410 411 415 416 417 589 590 591 598 599 600 613 614 615 622 623 624 649 650 651 658 659 660 745 746 747 754 755 756 1369 1370 1371 2905 2906 2907
25 26 27 31 32 33 409 410 411 415 416 417 589 590 591 598 599 600 613 614 615 622 623 624 649 650 651 658 659 660 745 746 747 754 755 756 1369 1370 1371 2905 2906 2907
28 29 30 34 35 36 412 413 414 418 419 420 592 593 594 595 596 597 616 617 618 619 620 621 652 653 654 655 656 657 748 749 750 751 752 753 1372 1373 1374 2908 2909 2910
28 29 30 34 35 36 412 413 414 418 419 420 592 593 594 595 596 597 616 617 618 619 620 621 652 653 654 655 656 657 748 749 750 751 752 753 1372 1373 1374 2908 2909 2910
28 29 30 34 35 36 412 413 414 418 419 420 592 593 594 595 596 597 616 617 618 619 620 621 652 653 654 655 656 657 748 749 750 751 752 753 1372 1373 1374 2908 2909 2910
25 26 27 31 32 33 409 410 411 415 416 417 592 593 594 595 596 597 616 617 618 619 620 621 652 653 654 655 656 657 748 749 750 751 752 753 1375 1376 1377 2911 2912 2913
25 26 27 31 32 33 409 410 411 415 416 417 592 593 594 595 596 597 616 617 618 619 620 621 652 653 654 655 656 657 748 749 750 751 752 753 1375 1376 1377 2911 2912 2913
25 26 27 31 32 33 409 410 411 415 416 417 592 593 594 595 596 597 616 617 618 619 620 621 652 653 654 655 656 657 748 749 750 751 752 753 1375 1376 1377 2911 2912 2913
28 29 30 34 35 36 412 413 414 418 419 420 589 590 591 598 599 600 613 614 615 622 623 624 649 650 651 658 659 660 745 746 747 754 755 756 1378 1379 1380 2914 2915 2916
28 29 30 34 35 36 412 413 414 418 419 420 589 590 591 598 599 600 613 614 615 622 623 624 649 650 651 658 659 660 745 746 747 754 755 756 1378 1379 1380 2914 2915 2916
28 29 30 34 35 36 412 413 414 418 419 420 589 590 591 598 599 600 613 614 615 622 623 624 649 650 651 658 659 660 745 746 747 754 755 756 1378 1379 1380 2914 2915 2916
37 38 39 43 44 45 421 422 423 427 428 429 577 578 579 586 587 588 601 602 603 610 611 612 661 662 663 670 671 672 757 758 759 766 767 768 1381 1382 1383 2917 2918 2919
37 38 39 43 44 45 421 422 423 427 428 429 577 578 579 586 587 588 601 602 603 610 611 612 661 662 663 670 671 672 757 758 759 766 767 768 1381 1382 1383 2917 2918 2919
37 38 39 43 44 45 421 422 423 427 428 429 577 578 579 586 587 588 601 602 603 610 611 612 661 662 663 670 671 672 757 758 759 766 767 768 1381 1382 1383 2917 2918 2919
40 41 42 46 47 48 424 425 426 430 431 432 580 581 582 583 584 585 604 605 606 607 608 609 664 665 666 667 668 669 760 761 762 763 764 765 1384 1385 1386 2920 2921 2922
40 41 42 46 47 48 424 425 426 430 431 432 580 581 582 583 584 585 604 605 606 607 608 609 664 665 666 667 668 669 760 761 762 763 764 765 1384 1385 1386 2920 2921 2922
40 41 42 46 47 48 424 425 426 430 431 432 580 581 582 583 584 585 604 605 606 607 608 609 664 665 666 667 668 669 760 761 762 763 764 765 1384 1385 1386 2920 2921 2922
37 38 39 43 44 45 421 422 423 427 428 429 580 581 582 583 584 585 604 605 606 607 608 609 664 665 666 667 668 669 760 761 762 763 764 765 1387 1388 1389 2923 2924 2925
37 38 39 43 44 45 421 422 423 427 428 429 580 581 582 583 584 585 604 605 606 607 608 609 664 665 666 667 668 669 760 761 762 763 764 765 1387 1388 1389 2923 2924 2925
37 38 39 43 44 45 421 422 423 427 428 429 580 581 582 583 584 585 604 605 606 607 608 609 664 665 666 667 668 669 760 761 762 763 764 765 1387 1388 1389 2923 2924 2925
40 41 42 46 47 48 424 425 426 430 431 432 577 578 579 586 587 588 601 602 603 610 611 612 661 662 663 670 671 672 757 758 759 766 767 768 1390 1391 1392 2926 2927 2928
40 41 42 46 47 48 424 425 426 430 431 432 577 578 579 586 587 588 601 602 603 610 611 612 661 662 663 670 671 672 757 758 759 766 767 768 1390 1391 1392 2926 2927 2928
40 41 42 46 47 48 424 425 426 430 431 432 577 578 579 586 587 588 601 602 603 610 611 612 661 662 663 670 671 672 757 758 759 766 767 768 1390 1391 1392 2926 2927 2928
49 50 51 55 56 57 433 434 435 439 440 441 577 578 579 586 587 588 637 638 639 646 647 648 661 662 663 670 671 672 673 674 675 682 683 684 1393 1394 1395 2929 2930 2931
49 50 51 55 56 57 433 434 435 439 440 441 577 578 579 586 587 588 637 638 639 646 647 648 661 662 663 670 671 672 673 674 675 682 683 684 1393 1394 1395 2929 2930 2931
49 50 51 55 56 57 433 434 435 439 440 441 577 578 579 586 587 588 637 638 639 646 647 648 661 662 663 670 671 672 673 674 675 682 683 684 1393 1394 1395 2929 2930 2931
52 53 54 58 59 60 436 437 438 442 443 444 580 581 582 583 584 585 640 641 642 643 644 645 664 665 666 667 668 669 676 677 678 679 680 681 1396 1397 1398 2932 2933 2934
52 53 54 58 59 60 436 437 438 442 443 444 580 581 582 583 584 585 640 641 642 643 644 645 664 665 666 667 668 669 676 677 678 679 680 681 1396 1397 1398 2932 2933 2934
52 53 54 58 59 60 436 437 438 442 443 444 580 581 582 583 584 585 640 641 642 643 644 645 664 665 666 667 668 669 676 677 678 679 680 681 1396 1397 1398 2932 2933 2934
49 50 51 55 56 57 433 434 435 439 440 441 580 581 582 583 584 585 640 641 642 643 644 645 664 665 666 667 668 669 676 677 678 679 680 681 1399 1400 1401 2935 2936 2937
49 50 51 55 56 57 433 434 435 439 440 441 580 581 582 583 584 585 640 641 642 643 644 645 664 665 666 667 668 669 676 677 678 679 680 681 1399 1400 1401 2935 2936 2937
49 50 51 55 56 57 433 434 435 439 440 441 580 581 582 583 584 585 640 641 642 643 644 645 664 665 666 667 668 669 676 677 678 679 680 681 1399 1400 1401 2935 2936 2937
52 53 54 58 59 60 436 437 438 442 443 444 577 578 579 586 587 588 637 638 639 646 647 648 661 662 663 670 671 672 673 674 675 682 683 684 1402 1403 1404 2938 2939 2940
52 53 54 58 59 60 436 437 438 442 443 444 577 578 579 586 587 588 637 638 639 646 647 648 661 662 663 670 671 672 673 674 675 682 683 684 1402 1403 1404 2938 2939 2940
52 53 54 58 59 60 436 437 438 442 443 444 577 578 579 586 587 588 637 638 639 646 647 648 661 662 663 670 671 672 673 674 675 682 683 684 1402 1403 1404 2938 2939 2940
61 62 63 67 68 69 445 446 447 451 452 453 589 590 591 598 599 600 625 626 627 634 635 636 649 650 651 658 659 660 685 686 687 694 695 696 1405 1406 1407 2941 2942 2943
61 62 63 67 68 69 445 446 447 451 452 453 589 590 591 598 599 600 625 626 627 634 635 636 649 650 651 658 659 660 685 686 687 694 695 696 1405 1406 1407 2941 2942 2943
61 62 63 67 68 69 445 446 447 451 452 453 589 590 591 598 599 600 625 626 627 634 635 636 649 650 651 658 659 660 685 686 687 694 695 696 1405 1406 1407 2941 2942 2943
64 65 66 70 71 72 448 449 450 454 455 456 592 593 594 595 596 597 628 629 630 631 632 633 652 653 654 655 656 657 688 689 690 691 692 693 1408 1409 1410 2944 2945 2946
64 65 66 70 71 72 448 449 450 454 455 456 592 593 594 595 596 597 628 629 630 631 632 633 652 653 654 655 656 657 688 689 690 691 692 693 1408 1409 1410 2944 2945 2946
64 65 66 70 71 72 448 449 450 454 455 456 592 593 594 595 596 597 628 629 630 631 632 633 652 653 654 655 656 657 688 689 690 691 692 693 1408 1409 1410 2944 2945 2946
61 62 63 67 68 69 445 446 447 451 452 453 592 593 594 595 596 597 628 629 630 631 632 633 652 653 654 655 656 657 688 689 690 691 692 693 1411 1412 1413 2947 2948 2949
61 62 63 67 68 69 445 446 447 451 452 453 592 593 594 595 596 597 628 629 630 631 632 633 652 653 654 655 656 657 688 689 690 691 692 693 1411 1412 1413 2947 2948 2949
61 62 63 67 68 69 445 446 447 451 452 453 592 593 594 595 596 597 628 629 630 631 632 633 652 653 654 655 656 657 688 689 690 691 692 693 1411 1412 1413 2947 2948 2949
64 65 66 70 71 72 448 449 450 454 455 456 589 590 591 598 599 600 625 626 627 634 635 636 649 650 651 658 659 660 685 686 687 694 695 696 1414 1415 1416 2950 2951 2952
64 65 66 70 71 72 448 449 450 454 455 456 589 590 591 598 599 600 625 626 627 634 635 636 649 650 651 658 659 660 685 686 687 694 695 696 1414 1415 1416 2950 2951 2952
64 65 66 70 71 72 448 449 450 454 455 456 589 590 591 598 599 600 625 626 627 634 635 636 649 650 651 658 659 660 685 686 687 694 695 696 1414 1415 1416 2950 2951 2952
73 74 75 79 80 81 457 458 459 463 464 465 601 602 603 610 611 612 637 638 639 646 647 648 661 662 663 670 671 672 697 698 699 706 707 708 1417 1418 1419 2953 2954 2955
73 74 75 79 80 81 457 458 459 463 464 465 601 602 603 610 611 612 637 638 639 646 647 648 661 662 663 670 671 672 697 698 699 706 707 708 1417 1418 1419 2953 2954 2955
73 74 75 79 80 81 457 458 459 463 464 465 601 602 603 610 611 612 637 638 639 646 647 648 661 662 663 670 671 672 697 698 699 706 707 708 1417 1418 1419 2953 2954 2955
76 77 78 82 83 84 460 461 462 466 467 468 604 605 606 607 608 609 640 641 642 643 644 645 664 665 666 667 668 669 700 701 702 703 704 705 1420 1421 1422 2956 2957 2958
76 77 78 82 83 84 460 461 462 466 467 468 604 605 606 607 608 609 640 641 642 643 644 645 664 665 666 667 668 669 700 701 702 703 704 705 1420 1421 1422 2956 2957 2958
76 77 78 82 83 84 460 461 462 466 467 468 604 605 606 607 608 609 640 641 642 643 644 645 664 665 666 667 668 669 700 701 702 703 704 705 1420 1421 1422 2956 2957 2958
73 74 75 79 80 81 457 458 459 463 464 465 604 605 606 607 608 609 640 641 642 643 644 645 664 665 666 667 668 669 700 701 702 703 704 705 1423 1424 1425 2959 2960 2961
73 74 75 79 80 81 457 458 459 463 464 465 604 605 606 607 608 609 640 641 642 643 644 645 664 665 666 667 668 669 700 701 702 703 704 705 1423 1424 1425 2959 2960 2961
73 74 75 79 80 81 457 458 459 463 464 465 604 605 606 607 608 609 640 641 642 643 644 645 664 665 666 667 668 669 700 701 702 703 704 705 1423 1424 1425 2959 2960 2961
76 77 78 82 83 84 460 461 462 466 467 468 601 602 603 610 611 612 637 638 639 646 647 648 661 662 663 670 671 672 697 698 699 706 707 708 1426 1427 1428 2962 2963 2964
76 77 78 82 83 84 460 461 462 466 467 468 601 602 603 610 611 612 637 638 639 646 647 648 661 662 663 670 671 672 697 698 699 706 707 708 1426 1427 1428 2962 2963 2964
76 77 78 82 83 84 460 461 462 466 467 468 601 602 603 610 611 612 637 638 639 646 647 648 661 662 663 670 671 672 697 698 699 706 707 708 1426 1427 1428 2962 2963 2964
85 86 87 91 92 93 469 470 471 475 476 477 613 614 615 622 623 624 625 626 627 634 635 636 649 650 651 658 659 660 709 710 711 718 719 720 1429 1430 1431 2965 2966 2967
85 86 87 91 92 93 469 470 471 475 476 477 613 614 615 622 623 624 625 626 627 634 635 636 649 650 651 658 659 660 709 710 711 718 719 720 1429 1430 1431 2965 2966 2967
85 86 87 91 92 93 469 470 471 475 476 477 613 614 615 622 623 624 625 626 627 634 635 636 649 650 651 658 659 660 709 710 711 718 719 720 1429 1430 1431 2965 2966 2967
88 89 90 94 95 96 472 473 474 478 479 480 616 617 618 619 620 621 628 629 630 631 632 633 652 653 654 655 656 657 712 713 714 715 716 717 1432 1433 1434 2968 2969 2970
88 89 90 94 95 96 472 473 474 478 479 480 616 617 618 619 620 621 628 629 630 631 632 633 652 653 654 655 656 657 712 713 714 715 716 717 1432 1433 1434 2968 2969 2970
88 89 90 94 95 96 472 473 474 478 479 480 616 617 618 619 620 621 628 629 630 631 632 633 652 653 654 655 656 657 712 713 714 715 716 717 1432 1433 1434 2968 2969 2970
85 86 87 91 92 93 469 470 471 475 476 477 616 617 618 619 620 621 628 629 630 631 632 633 652 653 654 655 656 657 712 713 714 715 716 717 1435 1436 1437 2971 2972 2973
85 86 87 91 92 93 469 470 471 475 476 477 616 617 618 619 620 621 628 629 630 631 632 633 652 653 654 655 656 657 712 713 714 715 716 717 1435 1436 1437 2971 2972 2973
85 86 87 91 92 93 469 470 471 475 476 477 616 617 618 619 620 621 628 629 630 631 632 633 652 653 654 655 656 657 712 713 714 715 716 717 1435 1436 1437 2971 2972 2973
88 89 90 94 95 96 472 473 474 478 479 480 613 614 615 622 623 624 625 626 627 634 635 636 649 650 651 658 659 660 709 710 711 718 719 720 1438 1439 1440 2974 2975 2976
88 89 90 94 95 96 472 473 474 478 479 480 613 614 615 622 623 624 625 626 627 634 635 636 649 650 651 658 659 660 709 710 711 718 719 720 1438 1439 1440 2974 2975 2976
88 89 90 94 95 96 472 473 474 478 479 480 613 614 615 622 623 624 625 626 627 634 635 636 649 650 651 658 659 660 709 710 711 718 719 720 1438 1439 1440 2974 2975 2976
97 98 99 103 104 105 481 482 483 487 488 489 625 626 627 634 635 636 685 686 687 694 695 696 709 710 711 718 719 720 721 722 723 730 731 732 1441 1442 1443 2977 2978 2979
97 98 99 103 104 105 481 482 483 487 488 489 625 626 627 634 635 636 685 686 687 694 695 696 709 710 711 718 719 720 721 722 723 730 731 732 1441 1442 1443 2977 2978 2979
97 98 99 103 104 105 481 482 483 487 488 489 625 626 627 634 635 636 685 686 687 694 695 696 709 710 711 718 719 720 721 722 723 730 731 732 1441 1442 1443 2977 2978 2979
100 101 102 106 107 108 484 485 486 490 491 492 628 629 630 631 632 633 688 689 690 691 692 693 712 713 714 715 716 717 724 725 726 727 728 729 1444 1445 1446 2980 2981 2982
100 101 102 106 107 108 484 485 486 490 491 492 628 629 630 631 632 633 688 689 690 691 692 693 712 713 714 715 716 717 724 725 726 727 728 729 1444 1445 1446 2980 2981 2982
100 101 102 106 107 108 484 485 486 490 491 492 628 629 630 631 632 633 688 689 690 691 692 693 712 713 714 715 716 717 724 725 726 727 728 729 1444 1445 1446 2980 2981 2982
97 98 99 103 104 105 481 482 483 487 488 489 628 629 630 631 632 633 688 689 690 691 692 693 712 713 714 715 716 717 724 725 726 727 728 729 1447 1448 1449 2983 2984 2985
97 98 99 103 104 105 481 482 483 487 488 489 628 629 630 631 632 633 688 689 690 691 692 693 712 713 714 715 716 717 724 725 726 727 728 729 1447 1448 1449 2983 2984 2985
97 98 99 103 104 105 481 482 483 487 488 489 628 629 630 631 632 633 688 689 690 691 692 693 712 713 714 715 716 717 724 725 726 727 728 729 1447 1448 1449 2983 2984 2985
100 101 102 106 107 108 484 485 486 490 491 492 625 626 627 634 635 636 685 686 687 694 695 696 709 710 711 718 719 720 721 722 723 730 731 732 1450 1451 1452 2986 2987 2988
100 101 102 106 107 108 484 485 486 490 491 492 625 626 627 634 635 636 685 686 687 694 695 696 709 710 711 718 719 720 721 722 723 730 731 732 1450 1451 1452 2986 2987 2988
100 101 102 106 107 108 484 485 486 490 491 492 625 626 627 634 635 636 685 686 687 694 695 696 709 710 711 718 719 720 721 722 723 730 731 732 1450 1451 1452 2986 2987 2988
109 110 111 115 116 117 493 494 495 499 500 501 637 638 639 646 647 648 673 674 675 682 683 684 697 698 699 706 707 708 733 734 735 742 743 744 1453 1454 1455 2989 2990 2991
109 110 111 115 116 117 493 494 495 499 500 501 637 638 639 646 647 648 673 674 675 682 683 684 697 698 699 706 707 708 733 734 735 742 743 744 1453 1454 1455 2989 2990 2991
109 110 111 115 116 117 493 494 495 499 500 501 637 638 639 646 647 648 673 674 675 682 683 684 697 698 699 706 707 708 733 734 735 742 743 744 1453 1454 1455 2989 2990 2991
112 113 114 118 119 120 496 497 498 502 503 504 640 641 642 643 644 645 676 677 678 679 680 681 700 701 702 703 704 705 736 737 738 739 740 741 1456 1457 1458 2992 2993 2994
112 113 114 118 119 120 496 497 498 502 503 504 640 641 642 643 644 645 676 677 678 679 680 681 700 701 702 703 704 705 736 737 738 739 740 741 1456 1457 1458 2992 2993 2994
112 113 114 118 119 120 496 497 498 502 503 504 640 641 642 643 644 645 676 677 678 679 680 681 700 701 702 703 704 705 736 737 738 739 740 741 1456 1457 1458 2992 2993 2994
109 110 111 115 116 117 493 494 495 499 500 501 640 641 642 643 644 645 676 677 678 679 680 681 700 701 702 703 704 705 736 737 738 739 740 741 1459 1460 1461 2995 2996 2997
109 110 111 115 116 117 493 494 495 499 500 501 640 641 642 643 644 645 676 677 678 679 680 681 700 701 702 703 704 705 736 737 738 739 740 741 1459 1460 1461 2995 2996 2997
109 110 111 115 116 117 493 494 495 499 500 501 640 641 642 643 644 645 676 677 678 679 680 681 700 701 702 703 704 705 736 737 738 739 740 741 1459 1460 1461 2995 2996 2997
112 113 114 118 119 120 496 497 498 502 503 504 637 638 639 646 647 648 673 674 675 682 683 684 697 698 699 706 707 708 733 734 735 742 743 744 1462 1463 1464 2998 2999 3000
112 113 114 118 119 120 496 497 498 502 503 504 637 638 639 646 647 648 673 674 675 682 683 684 697 698 699 706 707 708 733 734 735 742 743 744 1462 1463 1464 2998 2999 3000
112 113 114 118 119 120 496 497 498 502 503 504 637 638 639 646 647 648 673 674 675 682 683 684 697 698 699 706 707 708 733 734 735 742 743 744 1462 1463 1464 2998 2999 3000
121 122 123 127 128 129 505 506 507 511 512 513 649 650 651 658 659 660 685 686 687 694 695 696 709 710 711 718 719 720 745 746 747 754 755 756 1465 1466 1467 3001 3002 3003
121 122 123 127 128 129 505 506 507 511 512 513 649 650 651 658 659 660 685 686 687 694 695 696 709 710 711 718 719 720 745 746 747 754 755 756 1465 1466 1467 3001 3002 3003
121 122 123 127 128 129 505 506 507 511 512 513 649 650 651 658 659 660 685 686 687 694 695 696 709 710 711 718 719 720 745 746 747 754 755 756 1465 1466 1467 3001 3002 3003
124 125 126 130 131 132 508 509 510 514 515 516 652 653 654 655 656 657 688 689 690 691 692 693 712 713 714 715 716 717 748 749 750 751 752 753 1468 1469 1470 3004 3005 3006
124 125 126 130 131 132 508 509 510 514 515 516 652 653 654 655 656 657 688 689 690 691 692 693 712 713 714 715 716 717 748 749 750 751 752 753 1468 1469 1470 3004 3005 3006
124 125 126 130 131 132 508 509 510 514 515 516 652 653 654 655 656 657 688 689 690 691 692 693 712 713 714 715 716 717 748 749 750 751 752 753 1468 1469 1470 3004 3005 3006
121 122 123 127 128 129 505 506 507 511 512 513 652 653 654 655 656 657 688 689 690 691 692 693 712 713 714 715 716 717 748 749 750 751 752 753 1471 1472 1473 3007 3008 3009
121 122 123 127 128 129 505 506 507 511 512 513 652 653 654 655 656 657 688 689 690 691 692 693 712 713 714 715 716 717 748 749 750 751 752 753 1471 1472 1473 3007 3008 3009
121 122 123 127 128 129 505 506 507 511 512 513 652 653 654 655 656 657 688 689 690 691 692 693 712 713 714 715 716 717 748 749 750 751 752 753 1471 1472 1473 3007 3008 3009
124 125 126 130 131 132 508 509 510 514 515 516 649 650 651 658 659 660 685 686 687 694 695 696 709 710 711 718 719 720 745 746 747 754 755 756 1474 1475 1476 3010 3011 3012
124 125 126 130 131 132 508 509 510 514 515 516 649 650 651 658 659 660 685 686 687 694 695 696 709 710 711 718 719 720 745 746 747 754 755 756 1474 1475 1476 3010 3011 3012
124 125 126 130 131 132 508 509 510 514 515 516 649 650 651 658 659 660 685 686 687 694 695 696 709 710 711 718 719 720 745 746 747 754 755 756 1474 1475 1476 3010 3011 3012
133 134 135 139 140 141 517 518 519 523 524 525 661 662 663 670 671 672 673 674 675 682 683 684 697 698 699 706 707 708 757 758 759 766 767 768 1477 1478 1479 3013 3014 3015
133 134 135 139 140 141 517 518 519 523 524 525 661 662 663 670 671 672 673 674 675 682 683 684 697 698 699 706 707 708 757 758 759 766 767 768 1477 1478 1479 3013 3014 3015
133 134 135 139 140 141 517 518 519 523 524 525 661 662 663 670 671 672 673 674 675 682 683 684 697 698 699 706 707 708 757 758 759 766 767 768 1477 1478 1479 3013 3014 3015
136 137 138 142 143 144 520 521 522 526 527 528 664 665 666 667 668 669 676 677 678 679 680 681 700 701 702 703 704 705 760 761 762 763 764 765 1480 1481 1482 3016 3017 3018
136 137 138 142 143 144 520 521 522 526 527 528 664 665 666 667 668 669 676 677 678 679 680 681 700 701 702 703 704 705 760 761 762 763 764 765 1480 1481 1482 3016 3017 3018
136 137 138 142 143 144 520 521 522 526 527 528 664 665 666 667 668 669 676 677 678 679 680 681 700 701 702 703 704 705 760 761 762 763 764 765 1480 1481 1482 3016 3017 3018
133 134 135 139 140 141 517 518 519 523 524 525 664 665 666 667 668 669 676 677 678 679 680 681 700 701 702 703 704 705 760 761 762 763 764 765 1483 1484 1485 3019 3020 3021
133 134 135 139 140 141 517 518 519 523 524 525 664 665 666 667 668 669 676 677 678 679 680 681 700 701 702 703 704 705 760 761 762 763 764 765 1483 1484 1485 3019 3020 3021
133 134 135 139 140 141 517 518 519 523 524 525 664 665 666 667 668 669 676 677 678 679 680 681 700 701 702 703 704 705 760 761 762 763 764 765 1483 1484 1485 3019 3020 3021
136 137 138 142 143 144 520 521 522 526 527 528 661 662 663 670 671 672 673 674 675 682 683 684 697 698 699 706 707 708 757 758 759 766 767 768 1486 1487 1488 3022 3023 3024
136 137 138 142 143 144 520 521 522 526 527 528 661 662 663 670 671 672 673 674 675 682 683 684 697 698 699 706 707 708 757 758 759 766 767 768 1486 1487 1488 3022 3023 3024
136 137 138 142 143 144 520 521 522 526 527 528 661 662 663 670 671 672 673 674 675 682 683 684 697 698 699 706 707 708 757 758 759 766 767 768 1486 1487 1488 3022 3023 3024
145 146 147 151 152 153 529 530 531 535 536 537 577 578 579 586 587 588 673 674 675 682 683 684 733 734 735 742 743 744 757 758 759 766 767 768 1489 1490 1491 3025 3026 3027
145 146 147 151 152 153 529 530 531 535 536 537 577 578 579 586 587 588 673 674 675 682 683 684 733 734 735 742 743 744 757 758 759 766 767 768 1489 1490 1491 3025 3026 3027
145 146 147 151 152 153 529 530 531 535 536 537 577 578 579 586 587 588 673 674 675 682 683 684 733 734 735 742 743 744 757 758 759 766 767 768 1489 1490 1491 3025 3026 3027
148 149 150 154 155 156 532 533 534 538 539 540 580 581 582 583 584 585 676 677 678 679 680 681 736 737 738 739 740 741 760 761 762 763 764 765 1492 1493 1494 3028 3029 3030
148 149 150 154 155 156 532 533 534 538 539 540 580 581 582 583 584 585 676 677 678 679 680 681 736 737 738 739 740 741 760 761 762 763 764 765 1492 1493 1494 3028 3029 3030
148 149 150 154 155 156 532 533 534 538 539 540 580 581 582 583 584 585 676 677 678 679 680 681 736 737 738 739 740 741 760 761 762 763 764 765 1492 1493 1494 3028 3029 3030
145 146 147 151 152 153 529 530 531 535 536 537 580 581 582 583 584 585 676 677 678 679 680 681 736 737 738 739 740 741 760 761 762 763 764 765 1495 1496 1497 3031 3032 3033
145 146 147 151 152 153 529 530 531 535 536 537 580 581 582 583 584 585 676 677 678 679 680 681 736 737 738 739 740 741 760 761 762 763 764 765 1495 1496 1497 3031 3032 3033
145 146 147 151 152 153 529 530 531 535 536 537 580 581 582 583 584 585 676 677 678 679 680 681 736 737 738 739 740 741 760 761 762 763 764 765 1495 1496 1497 3031 3032 3033
148 149 150 154 155 156 532 533 534 538 539 540 577 578 579 586 587 588 673 674 675 682 683 684 733 734 735 742 743 744 757 758 759 766 767 768 1498 1499 1500 3034 3035 3036
148 149 150 154 155 156 532 533 534 538 539 540 577 578 579 586 587 588 673 674 675 682 683 684 733 734 735 742 743 744 757 758 759 766 767 768 1498 1499 1500 3034 3035 3036
148 149 150 154 155 156 532 533 534 538 539 540 577 578 579 586 587 588 673 674 675 682 683 684 733 734 735 742 743 744 757 758 759 766 767 768 1498 1499 1500 3034 3035 3036
157 158 159 163 164 165 541 542 543 547 548 549 589 590 591 598 599 600 685 686 687 694 695 696 721 722 723 730 731 732 745 746 747 754 755 756 1501 1502 1503 3037 3038 3039
157 158 159 163 164 165 541 542 543 547 548 549 589 590 591 598 599 600 685 686 687 694 695 696 721 722 723 730 731 732 745 746 747 754 755 756 1501 1502 1503 3037 3038 3039
157 158 159 163 164 165 541 542 543 547 548 549 589 590 591 598 599 600 685 686 687 694 695 696 721 722 723 730 731 732 745 746 747 754 755 756 1501 1502 1503 3037 3038 3039
160 161 162 166 167 168 544 545 546 550 551 552 592 593 594 595 596 597 688 689 690 691 692 693 724 725 726 727 728 729 748 749 750 751 752 753 1504 1505 1506 3040 3041 3042
160 161 162 166 167 168 544 545 546 550 551 552 592 593 594 595 596 597 688 689 690 691 692 693 724 725 726 727 728 729 748 749 750 751 752 753 1504 1505 1506 3040 3041 3042
160 161 162 166 167 168 544 545 546 550 551 552 592 593 594 595 596 597 688 689 690 691 692 693 724 725 726 727 728 729 748 749 750 751 752 753 1504 1505 1506 3040 3041 3042
157 158 159 163 164 165 541 542 543 547 548 549 592 593 594 595 596 597 688 689 690 691 692 693 724 725 726 727 728 729 748 749 750 751 752 753 1507 1508 1509 3043 3044 3045
157 158 159 163 164 165 541 542 543 547 548 549 592 593 594 595 596 597 688 689 690 691 692 693 724 725 726 727 728 729 748 749 750 751 752 753 1507 1508 1509 3043 3044 3045
157 158 159 163 164 165 541 542 543 547 548 549 592 593 594 595 596 597 688 689 690 691 692 693 724 725 726 727 728 729 748 749 750 751 752 753 1507 1508 1509 3043 3044 3045
160 161 162 166 167 168 544 545 546 550 551 552 589 590 591 598 599 600 685 686 687 694 695 696 721 722 723 730 731 732 745 746 747 754 755 756 1510 1511 1512 3046 3047 3048
160 161 162 166 167 168 544 545 546 550 551 552 589 590 591 598 599 600 685 686 687 694 695 696 721 722 723 730 731 732 745 746 747 754 755 756 1510 1511 1512 3046 3047 3048
160 161 162 166 167 168 544 545 546 550 551 552 589 590 591 598 599 600 685 686 687 694 695 696 721 722 723 730 731 732 745 746 747 754 755 756 1510 1511 1512 3046 3047 3048
169 170 171 175 176 177 553 554 555 559 560 561 601 602 603 610 611 612 697 698 699 706 707 708 733 734 735 742 743 744 757 758 759 766 767 768 1513 1514 1515 3049 3050 3051
169 170 171 175 176 177 553 554 555 559 560 561 601 602 603 610 611 612 697 698 699 706 707 708 733 734 735 742 743 744 757 758 759 766 767 768 1513 1514 1515 3049 3050 3051
169 170 171 175 176 177 553 554 555 559 560 561 601 602 603 610 611 612 697 698 699 706 707 708 733 734 735 742 743 744 757 758 759 766 767 768 1513 1514 1515 3049 3050 3051
172 173 174 178 179 180 556 557 558 562 563 564 604 605 606 607 608 609 700 701 702 703 704 705 736 737 738 739 740 741 760 761 762 763 764 765 1516 1517 1518 3052 3053 3054
172 173 174 178 179 180 556 557 558 562 563 564 604 605 606 607 608 609 700 701 702 703 704 705 736 737 738 739 740 741 760 761 762 763 764 765 1516 1517 1518 3052 3053 3054
172 173 174 178 179 180 556 557 558 562 563 564 604 605 606 607 608 609 700 701 702 703 704 705 736 737 738 739 740 741 760 761 762 763 764 765 1516 1517 1518 3052 3053 3054
169 170 171 175 176 177 553 554 555 559 560 561 604 605 606 607 608 609 700 701 702 703 704 705 736 737 738 739 740 741 760 761 762 763 764 765 1519 1520 1521 3055 3056 3057
169 170 171 175 176 177 553 554 555 559 560 561 604 605 606 607 608 609 700 701 702 703 704 705 736 737 738 739 740 741 760 761 762 763 764 765 1519 1520 1521 3055 3056 3057
169 170 171 175 176 177 553 554 555 559 560 561 604 605 606 607 608 609 700 701 702 703 704 705 736 737 738 739 740 741 760 761 762 763 764 765 1519 1520 1521 3055 3056 3057
172 173 174 178 179 180 556 557 558 562 563 564 601 602 603 610 611 612 697 698 699 706 707 708 733 734 735 742 743 744 757 758 759 766 767 768 1522 1523 1524 3058 3059 3060
172 173 174 178 179 180 556 557 558 562 563 564 601 602 603 610 611 612 697 698 699 706 707 708 733 734 735 742 743 744 757 758 759 766 767 768 1522 1523 1524 3058 3059 3060
172 173 174 178 179 180 556 557 558 562 563 564 601 602 603 610 611 612 697 698 699 706 707 708 733 734 735 742 743 744 757 758 759 766 767 768 1522 1523 1524 3058 3059 3060
181 182 183 187 188 189 565 566 567 571 572 573 613 614 615 622 623 624 709 710 711 718 719 720 721 722 723 730 731 732 745 746 747 754 755 756 1525 1526 1527 3061 3062 3063
181 182 183 187 188 189 565 566 567 571 572 573 613 614 615 622 623 624 709 710 711 718 719 720 721 722 723 730 731 732 745 746 747 754 755 756 1525 1526 1527 3061 3062 3063
181 182 183 187 188 189 565 566 567 571 572 573 613 614 615 622 623 624 709 710 711 718 719 720 721 722 723 730 731 732 745 746 747 754 755 756 1525 1526 1527 3061 3062 3063
184 185 186 190 191 192 568 569 570 574 575 576 616 617 618 619 620 621 712 713 714 715 716 717 724 725 726 727 728 729 748 749 750 751 752 753 1528 1529 1530 3064 3065 3066
184 185 186 190 191 192 568 569 570 574 575 576 616 617 618 619 620 621 712 713 714 715 716 717 724 725 726 727 728 729 748 749 750 751 752 753 1528 1529 1530 3064 3065 3066
184 185 186 190 191 192 568 569 570 574 575 576 616 617 618 619 620 621 712 713 714 715 716 717 724 725 726 727 728 729 748 749 750 751 752 753 1528 1529 1530 3064 3065 3066
181 182 183 187 188 189 565 566 567 571 572 573 616 617 618 619 620 621 712 713 714 715 716 717 724 725 726 727 728 729 748 749 750 751 752 753 1531 1532 1533 3067 3068 3069
181 182 183 187 188 189 565 566 567 571 572 573 616 617 618 619 620 621 712 713 714 715 716 717 724 725 726 727 728 729 748 749 750 751 752 753 1531 1532 1533 3067 3068 3069
181 182 183 187 188 189 565 566 567 571 572 573 616 617 618 619 620 621 712 713 714 715 716 717 724 725 726 727 728 729 748 749 750 751 752 753 1531 1532 1533 3067 3068 3069
184 185 186 190 191 192 568 569 570 574 575 576 613 614 615 622 623 624 709 710 711 718 719 720 721 722 723 730 731 732 745 746 747 754 755 756 1534 1535 1536 3070 3071 3072
184 185 186 190 191 192 568 569 570 574 575 576 613 614 615 622 623 624 709 710 711 718 719 720 721 722 723 730 731 732 745 746 747 754 755 756 1534 1535 1536 3070 3071 3072
184 185 186 190 191 192 568 569 570 574 575 576 613 614 615 622 623 624 709 710 711 718 719 720 721 722 723 730 731 732 745 746 747 754 755 756 1534 1535 1536 3070 3071 3072
1 2 3 781 782 783 790 791 792 805 806 807 814 815 816 817 818 819 826 827 828 913 914 915 922 923 924 961 962 963 967 968 969 1345 1346 1347 1351 1352 1353 1537 1538 1539
1 2 3 781 782 783 790 791 792 805 806 807 814 815 816 817 818 819 826 827 828 913 914 915 922 923 924 961 962 963 967 968 969 1345 1346 1347 1351 1352 1353 1537 1538 1539
1 2 3 781 782 783 790 791 792 805 806 807 814 815 816 817 818 819 826 827 828 913 914 915 922 923 924 961 962 963 967 968 969 1345 1346 1347 1351 1352 1353 1537 1538 1539
4 5 6 784 785 786 787 788 789 808 809 810 811 812 813 820 821 822 823 824 825 916 917 918 919 920 921 964 965 966 970 971 972 1348 1349 1350 1354 1355 1356 1540 1541 1542
4 5 6 784 785 786 787 788 789 808 809 810 811 812 813 820 821 822 823 824 825 916 917 918 919 920 921 964 965 966 970 971 972 1348 1349 1350 1354 1355 1356 1540 1541 1542
4 5 6 784 785 786 787 788 789 808 809 810 811 812 813 820 821 822 823 824 825 916 917 918 919 920 921 964 965 966 970 971 972 1348 1349 1350 1354 1355 1356 1540 1541 1542
7 8 9 784 785 786 787 788 789 808 809 810 811 812 813 820 821 822 823 824 825 916 917 918 919 920 921 961 962 963 967 968 969 1345 1346 1347 1351 1352 1353 1543 1544 1545
7 8 9 784 785 786 787 788 789 808 809 810 811 812 813 820 821 822 823 824 825 916 917 918 919 920 921 961 962 963 967 968 969 1345 1346 1347 1351 1352 1353 1543 1544 1545
7 8 9 784 785 786 787 788 789 808 809 810 811 812 813 820 821 822 823 824 825 916 917 918 919 920 921 961 962 963 967 968 969 1345 1346 1347 1351 1352 1353 1543 1544 1545
10 11 12 781 782 783 790 791 792 805 806 807 814 815 816 817 818 819 826 827 828 913 914 915 922 923 924 964 965 966 970 971 972 1348 1349 1350 1354 1355 1356 1546 1547 1548
10 11 12 781 782 783 790 791 792 805 806 807 814 815 816 817 818 819 826 827 828 913 914 915 922 923 924 964 965 966 970 971 972 1348 1349 1350 1354 1355 1356 1546 1547 1548
10 11 12 781 782 783 790 791 792 805 806 807 814 815 816 817 818 819 826 827 828 913 914 915 922 923 924 964 965 966 970 971 972 1348 1349 1350 1354 1355 1356 1546 1547 1548
13 14 15 769 770 771 778 779 780 793 794 795 802 803 804 829 830 831 838 839 840 925 926 927 934 935 936 973 974 975 979 980 981 1357 1358 1359 1363 1364 1365 1549 1550 1551
13 14 15 769 770 771 778 779 780 793 794 795 802 803 804 829 830 831 838 839 840 925 926 927 934 935 936 973 974 975 979 980 981 1357 1358 1359 1363 1364 1365 1549 1550 1551
13 14 15 769 770 771 778 779 780 793 794 795 802 803 804 829 830 831 838 839 840 925 926 927 934 935 936 973 974 975 979 980 981 1357 1358 1359 1363 1364 1365 1549 1550 1551
16 17 18 772 773 774 775 776 777 796 797 798 799 800 801 832 833 834 835 836 837 928 929 930 931 932 933 976 977 978 982 983 984 1360 1361 1362 1366 1367 1368 1552 1553 1554
16 17 18 772 773 774 775 776 777 796 797 798 799 800 801 832 833 834 835 836 837 928 929 930 931 932 933 976 977 978 982 983 984 1360 1361 1362 1366 1367 1368 1552 1553 1554
16 17 18 772 773 774 775 776 777 796 797 798 799 800 801 832 833 834 835 836 837 928 929 930 931 932 933 976 977 978 982 983 984 1360 1361 1362 1366 1367 1368 1552 1553 1554
19 20 21 772 773 774 775 776 777 796 797 798 799 800 801 832 833 834 835 836 837 928 929 930 931 932 933 973 974 975 979 980 981 1357 1358 1359 1363 1364 1365 1555 1556 1557
19 20 21 772 773 774 775 776 777 796 797 798 799 800 801 832 833 834 835 836 837 928 929 930 931 932 933 973 974 975 979 980 981 1357 1358 1359 1363 1364 1365 1555 1556 1557
19 20 21 772 773 774 775 776 777 796 797 798 799 800 801 832 833 834 835 836 837 928 929 930 931 932 933 973 974 975 979 980 981 1357 1358 1359 1363 1364 1365 1555 1556 1557
22 23 24 769 770 771 778 779 780 793 794 795 802 803 804 829 830 831 838 839 840 925 926 927 934 935 936 976 977 978 982 983 984 1360 1361 1362 1366 1367 1368 1558 1559 1560
22 23 24 769 770 771 778 779 780 793 794 795 802 803 804 829 830 831 838 839 840 925 926 927 934 935 936 976 977 978 982 983 984 1360 1361 1362 1366 1367 1368 1558 1559 1560
22 23 24 769 770 771 778 779 780 793 794 795 802 803 804 829 830 831 838 839 840 925 926 927 934 935 936 976 977 978 982 983 984 1360 1361 1362 1366 1367 1368 1558 1559 1560
25 26 27 781 782 783 790 791 792 805 806 807 814 815 816 841 842 843 850 851 852 937 938 939 946 947 948 985 986 987 991 992 993 1369 1370 1371 1375 1376 1377 1561 1562 1563
25 26 27 781 782 783 790 791 792 805 806 807 814 815 816 841 842 843 850 851 852 937 938 939 946 947 948 985 986 987 991 992 993 1369 1370 1371 1375 1376 1377 1561 1562 1563
25 26 27 781 782 783 790 791 792 805 806 807 814 815 816 841 842 843 850 851 852 937 938 939 946 947 948 985 986 987 991 992 993 1369 1370 1371 1375 1376 1377 1561 1562 1563
28 29 30 784 785 786 787 788 789 808 809 810 811 812 813 844 845 846 847 848 849 940 941 942 943 944 945 988 989 990 994 995 996 1372 1373 1374 1378 1379 1380 1564 1565 1566
28 29 30 784 785 786 787 788 789 808 809 810 811 812 813 844 845 846 847 848 849 940 941 942 943 944 945 988 989 990 994 995 996 1372 1373 1374 1378 1379 1380 1564 1565 1566
28 29 30 784 785 786 787 788 789 808 809 810 811 812 813 844 845 846 847 848 849 940 941 942 943 944 945 988 989 990 994 995 996 1372 1373 1374 1378 1379 1380 1564 1565 1566
31 32 33 784 785 786 787 788 789 808 809 810 811 812 813 844 845 846 847 848 849 940 941 942 943 944 945 985 986 987 991 992 993 1369 1370 1371 1375 1376 1377 1567 1568 1569
31 32 33 784 785 786 787 788 789 808 809 810 811 812 813 844 845 846 847 848 849 940 941 942 943 944 945 985 986 987 991 992 993 1369 1370 1371 1375 1376 1377 1567 1568 1569
31 32 33 784 785 786 787 788 789 808 809 810 811 812 813 844 845 846 847 848 849 940 941 942 943 944 945 985 986 987 991 992 993 1369 1370 1371 1375 1376 1377 1567 1568 1569
34 35 36 781 782 783 790 791 792 805 806 807 814 815 816 841 842 843 850 851 852 937 938 939 946 947 948 988 989 990 994 995 996 1372 1373 1374 1378 1379 1380 1570 1571 1572
34 35 36 781 782 783 790 791 792 805 806 807 814 815 816 841 842 843 850 851 852 937 938 939 946 947 948 988 989 990 994 995 996 1372 1373 1374 1378 1379 1380 1570 1571 1572
34 35 36 781 782 783 790 791 792 805 806 807 814 815 816 841 842 843 850 851 852 937 938 939 946 947 948 988 989 990 994 995 996 1372 1373 1374 1378 1379 1380 1570 1571 1572
37 38 39 769 770 771 778 779 780 793 794 795 802 803 804 853 854 855 862 863 864 949 950 951 958 959 960 997 998 999 1003 1004 1005 1381 1382 1383 1387 1388 1389 1573 1574 1575
37 38 39 769 770 771 778 779 780 793 794 795 802 803 804 853 854 855 862 863 864 949 950 951 958 959 960 997 998 999 1003 1004 1005 1381 1382 1383 1387 1388 1389 1573 1574 1575
37 38 39 769 770 771 778 779 780 793 794 795 802 803 804 853 854 855 862 863 864 949 950 951 958 959 960 997 998 999 1003 1004 1005 1381 1382 1383 1387 1388 1389 1573 1574 1575
40 41 42 772 773 774 775 776 777 796 797 798 799 800 801 856 857 858 859 860 861 952 953 954 955 956 957 1000 1001 1002 1006 1007 1008 1384 1385 1386 1390 1391 1392 1576 1577 1578
40 41 42 772 773 774 775 776 777 796 797 798 799 800 801 856 857 858 859 860 861 952 953 954 955 956 957 1000 1001 1002 1006 1007 1008 1384 1385 1386 1390 1391 1392 1576 1577 1578
40 41 42 772 773 774 775 776 777 796 797 798 799 800 801 856 857 858 859 860 861 952 953 954 955 956 957 1000 1001 1002 1006 1007 1008 1384 1385 1386 1390 1391 1392 1576 1577 1578
43 44 45 772 773 774 775 776 777 796 797 798 799 800 801 856 857 858 859 860 861 952 953 954 955 956 957 997 998 999 1003 1004 1005 1381 1382 1383 1387 1388 1389 1579 1580 1581
43 44 45 772 773 774 775 776 777 796 797 798 799 800 801 856 857 858 859 860 861 952 953 954 955 956 957 997 998 999 1003 1004 1005 1381 1382 1383 1387 1388 1389 1579 1580 1581
43 44 45 772 773 774 775 776 777 796 797 798 799 800 801 856 857 858 859 860 861 952 953 954 955 956 957 997 998 999 1003 1004 1005 1381 1382 1383 1387 1388 1389 1579 1580 1581
46 47 48 769 770 771 778 779 780 793 794 795 802 803 804 853 854 855 862 863 864 949 950 951 958 959 960 1000 1001 1002 1006 1007 1008 1384 1385 1386 1390 1391 1392 1582 1583 1584
46 47 48 769 770 771 778 779 780 793 794 795 802 803 804 853 854 855 862 863 864 949 950 951 958 959 960 1000 1001 1002 1006 1007 1008 1384 1385 1386 1390 1391 1392 1582 1583 1584
46 47 48 769 770 771 778 779 780 793 794 795 802 803 804 853 854 855 862 863 864 949 950 951 958 959 960 1000 1001 1002 1006 1007 1008 1384 1385 1386 1390 1391 1392 1582 1583 1584
49 50 51 769 770 771 778 779 780 829 830 831 838 839 840 853 854 855 862 863 864 865 866 867 874 875 876 1009 1010 1011 1015 1016 1017 1393 1394 1395 1399 1400 1401 1585 1586 1587
49 50 51 769 770 771 778 779 780 829 830 831 838 839 840 853 854 855 862 863 864 865 866 867 874 875 876 1009 1010 1011 1015 1016 1017 1393 1394 1395 1399 1400 1401 1585 1586 1587
49 50 51 769 770 771 778 779 780 829 830 831 838 839 840 853 854 855 862 863 864 865 866 867 874 875 876 1009 1010 1011 1015 1016 1017 1393 1394 1395 1399 1400 1401 1585 1586 1587
52 53 54 772 773 774 775 776 777 832 833 834 835 836 837 856 857 858 859 860 861 868 869 870 871 872 873 1012 1013 1014 1018 1019 1020 1396 1397 1398 1402 1403 1404 1588 1589 1590
52 53 54 772 773 774 775 776 777 832 833 834 835 836 837 856 857 858 859 860 861 868 869 870 871 872 873 1012 1013 1014 1018 1019 1020 1396 1397 1398 1402 1403 1404 1588 1589 1590
52 53 54 772 773 774 775 776 777 832 833 834 835 836 837 856 857 858 859 860 861 868 869 870 871 872 873 1012 1013 1014 1018 1019 1020 1396 1397 1398 1402 1403 1404 1588 1589 1590
55 56 57 772 773 774 775 776 777 832 833 834 835 836 837 856 857 858 859 860 861 868 869 870 871 872 873 1009 1010 1011 1015 1016 1017 1393 1394 1395 1399 1400 1401 1591 1592 1593
55 56 57 772 773 774 775 776 777 832 833 834 835 836 837 856 857 858 859 860 861 868 869 870 871 872 873 1009 1010 1011 1015 1016 1017 1393 1394 1395 1399 1400 1401 1591 1592 1593
55 56 57 772 773 774 775 776 777 832 833 834 835 836 837 856 857 858 859 860 861 868 869 870 871 872 873 1009 1010 1011 1015 1016 1017 1393 1394 1395 1399 1400 1401 1591 1592 1593
58 59 60 769 770 771 778 779 780 829 830 831 838 839 840 853 854 855 862 863 864 865 866 867 874 875 876 1012 1013 1014 1018 1019 1020 1396 1397 1398 1402 1403 1404 1594 1595 1596
58 59 60 769 770 771 778 779 780 829 830 831 838 839 840 853 854 855 862 863 864 865 866 867 874 875 876 1012 1013 1014 1018 1019 1020 1396 1397 1398 1402 1403 1404 1594 1595 1596
58 59 60 769 770 771 778 779 780 829 830 831 838 839 840 853 854 855 862 863 864 865 866 867 874 875 876 1012 1013 1014 1018 1019 1020 1396 1397 1398 1402 1403 1404 1594 1595 1596
61 62 63 781 782 783 790 791 792 817 818 819 826 827 828 841 842 843 850 851 852 877 878 879 886 887 888 1021 1022 1023 1027 1028 1029 1405 1406 1407 1411 1412 1413 1597 1598 1599
61 62 63 781 782 783 790 791 792 817 818 819 826 827 828 841 842 843 850 851 852 877 878 879 886 887 888 1021 1022 1023 1027 1028 1029 1405 1406 1407 1411 1412 1413 1597 1598 1599
61 62 63 781 782 783 790 791 792 817 818 819 826 827 828 841 842 843 850 851 852 877 878 879 886 887 888 1021 1022 1023 1027 1028 1029 1405 1406 1407 1411 1412 1413 1597 1598 1599
64 65 66 784 785 786 787 788 789 820 821 822 823 824 825 844 845 846 847 848 849 880 881 882 883 884 885 1024 1025 1026 1030 1031 1032 1408 1409 1410 1414 1415 1416 1600 1601 1602
64 65 66 784 785 786 787 788 789 820 821 822 823 824 825 844 845 846 847 848 849 880 881 882 883 884 885 1024 1025 1026 1030 1031 1032 1408 1409 1410 1414 1415 1416 1600 1601 1602
64 65 66 784 785 786 787 788 789 820 821 822 823 824 825 844 845 846 847 848 849 880 881 882 883 884 885 1024 1025 1026 1030 1031 1032 1408 1409 1410 1414 1415 1416 1600 1601 1602
67 68 69 784 785 786 787 788 789 820 821 822 823 824 825 844 845 846 847 848 849 880 881 882 883 884 885 1021 1022 1023 1027 1028 1029 1405 1406 1407 1411 1412 1413 1603 1604 1605
67 68 69 784 785 786 787 788 789 820 821 822 823 824 825 844 845 846 847 848 849 880 881 882 883 884 885 1021 1022 1023 1027 1028 1029 1405 1406 1407 1411 1412 1413 1603 1604 1605
67 68 69 784 785 786 787 788 789 820 821 822 823 824 825 844 845 846 847 848 849 880 881 882 883 884 885 1021 1022 1023 1027 1028 1029 1405 1406 1407 1411 1412 1413 1603 1604 1605
70 71 72 781 782 783 790 791 792 817 818 819 826 827 828 841 842 843 850 851 852 877 878 879 886 887 888 1024 1025 1026 1030 1031 1032 1408 1409 1410 1414 1415 1416 1606 1607 1608
70 71 72 781 782 783 790 791 792 817 818 819 826 827 828 841 842 843 850 851 852 877 878 879 886 887 888 1024 1025 1026 1030 1031 1032 1408 1409 1410 1414 1415 1416 1606 1607 1608
70 71 72 781 782 783 790 791 792 817 818 819 826 827 828 841 842 843 850 851 852 877 878 879 886 887 888 1024 1025 1026 1030 1031 1032 1408 1409 1410 1414 1415 1416 1606 1607 1608
73 74 75 793 794 795 802 803 804 829 830 831 838 839 840 853 854 855 862 863 864 889 890 891 898 899 900 1033 1034 1035 1039 1040 1041 1417 1418 1419 1423 1424 1425 1609 1610 1611
73 74 75 793 794 795 802 803 804 829 830 831 838 839 840 853 854 855 862 863 864 889 890 891 898 899 900 1033 1034 1035 1039 1040 1041 1417 1418 1419 1423 1424 1425 1609 1610 1611
73 74 75 793 794 795 802 803 804 829 830 831 838 839 840 853 854 855 862 863 864 889 890 891 898 899 900 1033 1034 1035 1039 1040 1041 1417 1418 1419 1423 1424 1425 1609 1610 1611
76 77 78 796 797 798 799 800 801 832 833 834 835 836 837 856 857 858 859 860 861 892 893 894 895 896 897 1036 1037 1038 1042 1043 1044 1420 1421 1422 1426 1427 1428 1612 1613 1614
76 77 78 796 797 798 799 800 801 832 833 834 835 836 837 856 857 858 859 860 861 892 893 894 895 896 897 1036 1037 1038 1042 1043 1044 1420 1421 1422 1426 1427 1428 1612 1613 1614
76 77 78 796 797 798 799 800 801 832 833 834 835 836 837 856 857 858 859 860 861 892 893 894 895 896 897 1036 1037 1038 1042 1043 1044 1420 1421 1422 1426 1427 1428 1612 1613 1614
79 80 81 796 797 798 799 800 801 832 833 834 835 836 837 856 857 858 859 860 861 892 893 894 895 896 897 1033 1034 1035 1039 1040 1041 1417 1418 1419 1423 1424 1425 1615 1616 1617
79 80 81 796 797 798 799 800 801 832 833 834 835 836 837 856 857 858 859 860 861 892 893 894 895 896 897 1033 1034 1035 1039 1040 1041 1417 1418 1419 1423 1424 1425 1615 1616 1617
79 80 81 796 797 798 799 800 801 832 833 834 835 836 837 856 857 858 859 860 861 892 893 894 895 896 897 1033 1034 1035 1039 1040 1041 1417 1418 1419 1423 1424 1425 1615 1616 1617
82 83 84 793 794 795 802 803 804 829 830 831 838 839 840 853 854 855 862 863 864 889 890 891 898 899 900 1036 1037 1038 1042 1043 1044 1420 1421 1422 1426 1427 1428 1618 1619 1620
82 83 84 793 794 795 802 803 804 829 830 831 838 839 840 853 854 855 862 863 864 889 890 891 898 899 900 1036 1037 1038 1042 1043 1044 1420 1421 1422 1426 1427 1428 1618 1619 1620
82 83 84 793 794 795 802 803 804 829 830 831 838 839 840 853 854 855 862 863 864 889 890 891 898 899 900 1036 1037 1038 1042 1043 1044 1420 1421 1422 1426 1427 1428 1618 1619 1620
85 86 87 805 806 807 814 815 816 817 818 819 826 827 828 841 842 843 850 851 852 901 902 903 910 911 912 1045 1046 1047 1051 1052 1053 1429 1430 1431 1435 1436 1437 1621 1622 1623
85 86 87 805 806 807 814 815 816 817 818 819 826 827 828 841 842 843 850 851 852 901 902 903 910 911 912 1045 1046 1047 1051 1052 1053 1429 1430 1431 1435 1436 1437 1621 1622 1623
85 86 87 805 806 807 814 815 816 817 818 819 826 827 828 841 842 843 850 851 852 901 902 903 910 911 912 1045 1046 1047 1051 1052 1053 1429 1430 1431 1435 1436 1437 1621 1622 1623
88 89 90 808 809 810 811 812 813 820 821 822 823 824 825 844 845 846 847 848 849 904 905 906 907 908 909 1048 1049 1050 1054 1055 1056 1432 1433 1434 1438 1439 1440 1624 1625 1626
88 89 90 808 809 810 811 812 813 820 821 822 823 824 825 844 845 846 847 848 849 904 905 906 907 908 909 1048 1049 1050 1054 1055 1056 1432 1433 1434 1438 1439 1440 1624 1625 1626
88 89 90 808 809 810 811 812 813 820 821 822 823 824 825 844 845 846 847 848 849 904 905 906 907 908 909 1048 1049 1050 1054 1055 1056 1432 1433 1434 1438 1439 1440 1624 1625 1626
91 92 93 808 809 810 811 812 813 820 821 822 823 824 825 844 845 846 847 848 849 904 905 906 907 908 909 1045 1046 1047 1051 1052 1053 1429 1430 1431 1435 1436 1437 1627 1628 1629
91 92 93 808 809 810 811 812 813 820 821 822 823 824 825 844 845 846 847 848 849 904 905 906 907 908 909 1045 1046 1047 1051 1052 1053 1429 1430 1431 1435 1436 1437 1627 1628 1629
91 92 93 808 809 810 811 812 813 820 821 822 823 824 825 844 845 846 847 848 849 904 905 906 907 908 909 1045 1046 1047 1051 1052 1053 1429 1430 1431 1435 1436 1437 1627 1628 1629
94 95 96 805 806 807 814 815 816 817 818 819 826 827 828 841 842 843 850 851 852 901 902 903 910 911 912 1048 1049 1050 1054 1055 1056 1432 1433 1434 1438 1439 1440 1630 1631 1632
94 95 96 805 806 807 814 815 816 817 818 819 826 827 828 841 842 843 850 851 852 901 902 903 910 911 912 1048 1049 1050 1054 1055 1056 1432 1433 1434 1438 1439 1440 1630 1631 1632
94 95 96 805 806 807 814 815 816 817 818 819 826 827 828 841 842 843 850 851 852 901 902 903 910 911 912 1048 1049 1050 1054 1055 1056 1432 1433 1434 1438 1439 1440 1630 1631 1632
97 98 99 817 818 819 826 827 828 877 878 879 886 887 888 901 902 903 910 911 912 913 914 915 922 923 924 1057 1058 1059 1063 1064 1065 1441 1442 1443 1447 1448 1449 1633 1634 1635
97 98 99 817 818 819 826 827 828 877 878 879 886 887 888 901 902 903 910 911 912 913 914 915 922 923 924 1057 1058 1059 1063 1064 1065 1441 1442 1443 1447 1448 1449 1633 1634 1635
97 98 99 817 818 819 826 827 828 877 878 879 886 887 888 901 902 903 910 911 912 913 914 915 922 923 924 1057 1058 1059 1063 1064 1065 1441 1442 1443 1447 1448 1449 1633 1634 1635
100 101 102 820 821 822 823 824 825 880 881 882 883 884 885 904 905 906 907 908 909 916 917 918 919 920 921 1060 1061 1062 1066 1067 1068 1444 1445 1446 1450 1451 1452 1636 1637 1638
100 101 102 820 821 822 823 824 825 880 881 882 883 884 885 904 905 906 907 908 909 916 917 918 919 920 921 1060 1061 1062 1066 1067 1068 1444 1445 1446 1450 1451 1452 1636 1637 1638
100 101 102 820 821 822 823 824 825 880 881 882 883 884 885 904 905 906 907 908 909 916 917 918 919 920 921 1060 1061 1062 1066 1067 1068 1444 1445 1446 1450 1451 1452 1636 1637 1638
103 104 105 820 821 822 823 824 825 880 881 882 883 884 885 904 905 906 907 908 909 916 917 918 919 920 921 1057 1058 1059 1063 1064 1065 1441 1442 1443 1447 1448 1449 1639 1640 1641
103 104 105 820 821 822 823 824 825 880 881 882 883 884 885 904 905 906 907 908 909 916 917 918 919 920 921 1057 1058 1059 1063 1064 1065 1441 1442 1443 1447 1448 1449 1639 1640 1641
103 104 105 820 821 822 823 824 825 880 881 882 883 884 885 904 905 906 907 908 909 916 917 918 919 920 921 1057 1058 1059 1063 1064 1065 1441 1442 1443 1447 1448 1449 1639 1640 1641
106 107 108 817 818 819 826 827 828 877 878 879 886 887 888 901 902 903 910 911 912 913 914 915 922 923 924 1060 1061 1062 1066 1067 1068 1444 1445 1446 1450 1451 1452 1642 1643 1644
106 107 108 817 818 819 826 827 828 877 878 879 886 887 888 901 902 903 910 911 912 913 914 915 922 923 924 1060 1061 1062 1066 1067 1068 1444 1445 1446 1450 1451 1452 1642 1643 1644
106 107 108 817 818 819 826 827 828 877 878 879 886 887 888 901 902 903 910 911 912 913 914 915 922 923 924 1060 1061 1062 1066 1067 1068 1444 1445 1446 1450 1451 1452 1642 1643 1644
109 110 111 829 830 831 838 839 840 865 866 867 874 875 876 889 890 891 898 899 900 925 926 927 934 935 936 1069 1070 1071 1075 1076 1077 1453 1454 1455 1459 1460 1461 1645 1646 1647
109 110 111 829 830 831 838 839 840 865 866 867 874 875 876 889 890 891 898 899 900 925 926 927 934 935 936 1069 1070 1071 1075 1076 1077 1453 1454 1455 1459 1460 1461 1645 1646 1647
109 110 111 829 830 831 838 839 840 865 866 867 874 875 876 889 890 891 898 899 900 925 926 927 934 935 936 1069 1070 1071 1075 1076 1077 1453 1454 1455 1459 1460 1461 1645 1646 1647
112 113 114 832 833 834 835 836 837 868 869 870 871 872 873 892 893 894 895 896 897 928 929 930 931 932 933 1072 1073 1074 1078 1079 1080 1456 1457 1458 1462 1463 1464 1648 1649 1650
112 113 114 832 833 834 835 836 837 868 869 870 871 872 873 892 893 894 895 896 897 928 929 930 931 932 933 1072 1073 1074 1078 1079 1080 1456 1457 1458 1462 1463 1464 1648 1649 1650
112 113 114 832 833 834 835 836 837 868 869 870 871 872 873 892 893 894 895 896 897 928 929 930 931 932 933 1072 1073 1074 1078 1079 1080 1456 1457 1458 1462 1463 1464 1648 1649 1650
115 116 117 832 833 834 835 836 837 868 869 870 871 872 873 892 893 894 895 896 897 928 929 930 931 932 933 1069 1070 1071 1075 1076 1077 1453 1454 1455 1459 1460 1461 1651 1652 1653
115 116 117 832 833 834 835 836 837 868 869 870 871 872 873 892 893 894 895 896 897 928 929 930 931 932 933 1069 1070 1071 1075 1076 1077 1453 1454 1455 1459 1460 1461 1651 1652 1653
115 116 117 832 833 834 835 836 837 868 869 870 871 872 873 892 893 894 895 896 897 928 929 930 931 932 933 1069 1070 1071 1075 1076 1077 1453 1454 1455 1459 1460 1461 1651 1652 1653
118 119 120 829 830 831 838 839 840 865 866 867 874 875 876 889 890 891 898 899 900 925 926 927 934 935 936 1072 1073 1074 1078 1079 1080 1456 1457 1458 1462 1463 1464 1654 1655 1656
118 119 120 829 830 831 838 839 840 865 866 867 874 875 876 889 890 891 898 899 900 925 926 927 934 935 936 1072 1073 1074 1078 1079 1080 1456 1457 1458 1462 1463 1464 1654 1655 1656
118 119 120 829 830 831 838 839 840 865 866 867 874 875 876 889 890 891 898 899 900 925 926 927 934 935 936 1072 1073 1074 1078 1079 1080 1456 1457 1458 1462 1463 1464 1654 1655 1656
121 122 123 841 842 843 850 851 852 877 878 879 886 887 888 901 902 903 910 911 912 937 938 939 946 947 948 1081 1082 1083 1087 1088 1089 1465 1466 1467 1471 1472 1473 1657 1658 1659
121 122 123 841 842 843 850 851 852 877 878 879 886 887 888 901 902 903 910 911 912 937 938 939 946 947 948 1081 1082 1083 1087 1088 1089 1465 1466 1467 1471 1472 1473 1657 1658 1659
121 122 123 841 842 843 850 851 852 877 878 879 886 887 888 901 902 903 910 911 912 937 938 939 946 947 948 1081 1082 1083 1087 1088 1089 1465 1466 1467 1471 1472 1473 1657 1658 1659
124 125 126 844 845 846 847 848 849 880 881 882 883 884 885 904 905 906 907 908 909 940 941 942 943 944 945 1084 1085 1086 1090 1091 1092 1468 1469 1470 1474 1475 1476 1660 1661 1662
124 125 126 844 845 846 847 848 849 880 881 882 883 884 885 904 905 906 907 908 909 940 941 942 943 944 945 1084 1085 1086 1090 1091 1092 1468 1469 1470 1474 1475 1476 1660 1661 1662
124 125 126 844 845 846 847 848 849 880 881 882 883 884 885 904 905 906 907 908 909 940 941 942 943 944 945 1084 1085 1086 1090 1091 1092 1468 1469 1470 1474 1475 1476 1660 1661 1662
127 128 129 844 845 846 847 848 849 880 881 882 883 884 885 904 905 906 907 908 909 940 941 942 943 944 945 1081 1082 1083 1087 1088 1089 1465 1466 1467 1471 1472 1473 1663 1664 1665
127 128 129 844 845 846 847 848 849 880 881 882 883 884 885 904 905 906 907 908 909 940 941 942 943 944 945 1081 1082 1083 1087 1088 1089 1465 1466 1467 1471 1472 1473 1663 1664 1665
127 128 129 844 845 846 847 848 849 880 881 882 883 884 885 904 905 906 907 908 909 940 941 942 943 944 945 1081 1082 1083 1087 1088 1089 1465 1466 1467 1471 1472 1473 1663 1664 1665
130 131 132 841 842 843 850 851 852 877 878 879 886 887 888 901 902 903 910 911 912 937 938 939 946 947 948 1084 1085 1086 1090 1091 1092 1468 1469 1470 1474 1475 1476 1666 1667 1668
130 131 132 841 842 843 850 851 852 877 878 879 886 887 888 901 902 903 910 911 912 937 938 939 946 947 948 1084 1085 1086 1090 1091 1092 1468 1469 1470 1474 1475 1476 1666 1667 1668
130 131 132 841 842 843 850 851 852 877 878 879 886 887 888 901 902 903 910 911 912 937 938 939 946 947 948 1084 1085 1086 1090 1091 1092 1468 1469 1470 1474 1475 1476 1666 1667 1668
133 134 135 853 854 855 862 863 864 865 866 867 874 875 876 889 890 891 898 899 900 949 950 951 958 959 960 1093 1094 1095 1099 1100 1101 1477 1478 1479 1483 1484 1485 1669 1670 1671
133 134 135 853 854 855 862 863 864 865 866 867 874 875 876 889 890 891 898 899 900 949 950 951 958 959 960 1093 1094 1095 1099 1100 1101 1477 1478 1479 1483 1484 1485 1669 1670 1671
133 134 135 853 854 855 862 863 864 865 866 867 874 875 876 889 890 891 898 899 900 949 950 951 958 959 960 1093 1094 1095 1099 1100 1101 1477 1478 1479 1483 1484 1485 1669 1670 1671
136 137 138 856 857 858 859 860 861 868 869 870 871 872 873 892 893 894 895 896 897 952 953 954 955 956 957 1096 1097 1098 1102 1103 1104 1480 1481 1482 1486 1487 1488 1672 1673 1674
136 137 138 856 857 858 859 860 861 868 869 870 871 872 873 892 893 894 895 896 897 952 953 954 955 956 957 1096 1097 1098 1102 1103 1104 1480 1481 1482 1486 1487 1488 1672 1673 1674
136 137 138 856 857 858 859 860 861 868 869 870 871 872 873 892 893 894 895 896 897 952 953 954 955 956 957 1096 1097 1098 1102 1103 1104 1480 1481 1482 1486 1487 1488 1672 1673 1674
139 140 141 856 857 858 859 860 861 868 869 870 871 872 873 892 893 894 895 896 897 952 953 954 955 956 957 1093 1094 1095 1099 1100 1101 1477 1478 1479 1483 1484 1485 1675 1676 1677
139 140 141 856 857 858 859 860 861 868 869 870 871 872 873 892 893 894 895 896 897 952 953 954 955 956 957 1093 1094 1095 1099 1100 1101 1477 1478 1479 1483 1484 1485 1675 1676 1677
139 140 141 856 857 858 859 860 861 868 869 870 871 872 873 892 893 894 895 896 897 952 953 954 955 956 957 1093 1094 1095 1099 1100 1101 1477 1478 1479 1483 1484 1485 1675 1676 1677
142 143 144 853 854 855 862 863 864 865 866 867 874 875 876 889 890 891 898 899 900 949 950 951 958 959 960 1096 1097 1098 1102 1103 1104 1480 1481 1482 1486 1487 1488 1678 1679 1680
142 143 144 853 854 855 862 863 864 865 866 867 874 875 876 889 890 891 898 899 900 949 950 951 958 959 960 1096 1097 1098 1102 1103 1104 1480 1481 1482 1486 1487 1488 1678 1679 1680
142 143 144 853 854 855 862 863 864 865 866 867 874 875 876 889 890 891 898 899 900 949 950 951 958 959 960 1096 1097 1098 1102 1103 1104 1480 1481 1482 1486 1487 1488 1678 1679 1680
145 146 147 769 770 771 778 779 780 865 866 867 874 875 876 925 926 927 934 935 936 949 950 951 958 959 960 1105 1106 1107 1111 1112 1113 1489 1490 1491 1495 1496 1497 1681 1682 1683
145 146 147 769 770 771 778 779 780 865 866 867 874 875 876 925 926 927 934 935 936 949 950 951 958 959 960 1105 1106 1107 1111 1112 1113 1489 1490 1491 1495 1496 1497 1681 1682 1683
145 146 147 769 770 771 778 779 780 865 866 867 874 875 876 925 926 927 934 935 936 949 950 951 958 959 960 1105 1106 1107 1111 1112 1113 1489 1490 1491 1495 1496 1497 1681 1682 1683
148 149 150 772 773 774 775 776 777 868 869 870 871 872 873 928 929 930 931 932 933 952 953 954 955 956 957 1108 1109 1110 1114 1115 1116 1492 1493 1494 1498 1499 1500 1684 1685 1686
148 149 150 772 773 774 775 776 777 868 869 870 871 872 873 928 929 930 931 932 933 952 953 954 955 956 957 1108 1109 1110 1114 1115 1116 1492 1493 1494 1498 1499 1500 1684 1685 1686
148 149 150 772 773 774 775 776 777 868 869 870 871 872 873 928 929 930 931 932 933 952 953 954 955 956 957 1108 1109 1110 1114 1115 1116 1492 1493 1494 1498 1499 1500 1684 1685 1686
151 152 153 772 773 774 775 776 777 868 869 870 871 872 873 928 929 930 931 932 933 952 953 954 955 956 957 1105 1106 1107 1111 1112 1113 1489 1490 1491 1495 1496 1497 1687 1688 1689
151 152 153 772 773 774 775 776 777 868 869 870 871 872 873 928 929 930 931 932 933 952 953 954 955 956 957 1105 1106 1107 1111 1112 1113 1489 1490 1491 1495 1496 1497 1687 1688 1689
151 152 153 772 773 774 775 776 777 868 869 870 871 872 873 928 929 930 931 932 933 952 953 954 955 956 957 1105 1106 1107 1111 1112 1113 1489 1490 1491 1495 1496 1497 1687 1688 1689
154 155 156 769 770 771 778 779 780 865 866 867 874 875 876 925 926 927 934 935 936 949 950 951 958 959 960 1108 1109 1110 1114 1115 1116 1492 1493 1494 1498 1499 1500 1690 1691 1692
154 155 156 769 770 771 778 779 780 865 866 867 874 875 876 925 926 927 934 935 936 949 950 951 958 959 960 1108 1109 1110 1114 1115 1116 1492 1493 1494 1498 1499 1500 1690 1691 1692
154 155 156 769 770 771 778 779 780 865 866 867 874 875 876 925 926 927 934 935 936 949 950 951 958 959 960 1108 1109 1110 1114 1115 1116 1492 1493 1494 1498 1499 1500 1690 1691 1692
157 158 159 781 782 783 790 791 792 877 878 879 886 887 888 913 914 915 922 923 924 937 938 939 946 947 948 1117 1118 1119 1123 1124 1125 1501 1502 1503 1507 1508 1509 1693 1694 1695
157 158 159 781 782 783 790 791 792 877 878 879 886 887 888 913 914 915 922 923 924 937 938 939 946 947 948 1117 1118 1119 1123 1124 1125 1501 1502 1503 1507 1508 1509 1693 1694 1695
157 158 159 781 782 783 790 791 792 877 878 879 886 887 888 913 914 915 922 923 924 937 938 939 946 947 948 1117 1118 1119 1123 1124 1125 1501 1502 1503 1507 1508 1509 1693 1694 1695
160 161 162 784 785 786 787 788 789 880 881 882 883 884 885 916 917 918 919 920 921 940 941 942 943 944 945 1120 1121 1122 1126 1127 1128 1504 1505 1506 1510 1511 1512 1696 1697 1698
160 161 162 784 785 786 787 788 789 880 881 882 883 884 885 916 917 918 919 920 921 940 941 942 943 944 945 1120 1121 1122 1126 1127 1128 1504 1505 1506 1510 1511 1512 1696 1697 1698
160 161 162 784 785 786 787 788 789 880 881 882 883 884 885 916 917 918 919 920 921 940 941 942 943 944 945 1120 1121 1122 1126 1127 1128 1504 1505 1506 1510 1511 1512 1696 1697 1698
163 164 165 784 785 786 787 788 789 880 881 882 883 884 885 916 917 918 919 920 921 940 941 942 943 944 945 1117 1118 1119 1123 1124 1125 1501 1502 1503 1507 1508 1509 1699 1700 1701
163 164 165 784 785 786 787 788 789 880 881 882 883 884 885 916 917 918 919 920 921 940 941 942 943 944 945 1117 1118 1119 1123 1124 1125 1501 1502 1503 1507 1508 1509 1699 1700 1701
163 164 165 784 785 786 787 788 789 880 881 882 883 884 885 916 917 918 919 920 921 940 941 942 943 944 945 1117 1118 1119 1123 1124 1125 1501 1502 1503 1507 1508 1509 1699 1700 1701
166 167 168 781 782 783 790 791 792 877 878 879 886 887 888 913 914 915 922 923 924 937 938 939 946 947 948 1120 1121 1122 1126 1127 1128 1504 1505 1506 1510 1511 1512 1702 1703 1704
166 167 168 781 782 783 790 791 792 877 878 879 886 887 888 913 914 915 922 923 924 937 938 939 946 947 948 1120 1121 1122 1126 1127 1128 1504 1505 1506 1510 1511 1512 1702 1703 1704
166 167 168 781 782 783 790 791 792 877 878 879 886 887 888 913 914 915 922 923 924 937 938 939 946 947 948 1120 1121 1122 1126 1127 1128 1504 1505 1506 1510 1511 1512 1702 1703 1704
169 170 171 793 794 795 802 803 804 889 890 891 898 899 900 925 926 927 934 935 936 949 950 951 958 959 960 1129 1130 1131 1135 1136 1137 1513 1514 1515 1519 1520 1521 1705 1706 1707
169 170 171 793 794 795 802 803 804 889 890 891 898 899 900 925 926 927 934 935 936 949 950 951 958 959 960 1129 1130 1131 1135 1136 1137 1513 1514 1515 1519 1520 1521 1705 1706 1707
169 170 171 793 794 795 802 803 804 889 890 891 898 899 900 925 926 927 934 935 936 949 950 951 958 959 960 1129 1130 1131 1135 1136 1137 1513 1514 1515 1519 1520 1521 1705 1706 1707
172 173 174 796 797 798 799 800 801 892 893 894 895 896 897 928 929 930 931 932 933 952 953 954 955 956 957 1132 1133 1134 1138 1139 1140 1516 1517 1518 1522 1523 1524 1708 1709 1710
172 173 174 796 797 798 799 800 801 892 893 894 895 896 897 928 929 930 931 932 933 952 953 954 955 956 957 1132 1133 1134 1138 1139 1140 1516 1517 1518 1522 1523 1524 1708 1709 1710
172 173 174 796 797 798 799 800 801 892 893 894 895 896 897 928 929 930 931 932 933 952 953 954 955 956 957 1132 1133 1134 1138 1139 1140 1516 1517 1518 1522 1523 1524 1708 1709 1710
175 176 177 796 797 798 799 800 801 892 893 894 895 896 897 928 929 930 931 932 933 952 953 954 955 956 957 1129 1130 1131 1135 1136 1137 1513 1514 1515 1519 1520 1521 1711 1712 1713
175 176 177 796 797 798 799 800 801 892 893 894 895 896 897 928 929 930 931 932 933 952 953 954 955 956 957 1129 1130 1131 1135 1136 1137 1513 1514 1515 1519 1520 1521 1711 1712 1713
175 176 177 796 797 798 799 800 801 892 893 894 895 896 897 928 929 930 931 932 933 952 953 954 955 956 957 1129 1130 1131 1135 1136 1137 1513 1514 1515 1519 1520 1521 1711 1712 1713
178 179 180 793 794 795 802 803 804 889 890 891 898 899 900 925 926 927 934 935 936 949 950 951 958 959 960 1132 1133 1134 1138 1139 1140 1516 1517 1518 1522 1523 1524 1714 1715 1716
178 179 180 793 794 795 802 803 804 889 890 891 898 899 900 925 926 927 934 935 936 949 950 951 958 959 960 1132 1133 1134 1138 1139 1140 1516 1517 1518 1522 1523 1524 1714 1715 1716
178 179 180 793 794 795 802 803 804 889 890 891 898 899 900 925 926 927 934 935 936 949 950 951 958 959 960 1132 1133 1134 1138 1139 1140 1516 1517 1518 1522 1523 1524 1714 1715 1716
181 182 183 805 806 807 814 815 816 901 902 903 910 911 912 913 914 915 922 923 924 937 938 939 946 947 948 1141 1142 1143 1147 1148 1149 1525 1526 1527 1531 1532 1533 1717 1718 1719
181 182 183 805 806 807 814 815 816 901 902 903 910 911 912 913 914 915 922 923 924 937 938 939 946 947 948 1141 1142 1143 1147 1148 1149 1525 1526 1527 1531 1532 1533 1717 1718 1719
181 182 183 805 806 807 814 815 816 901 902 903 910 911 912 913 914 915 922 923 924 937 938 939 946 947 948 1141 1142 1143 1147 1148 1149 1525 1526 1527 1531 1532 1533 1717 1718 1719
184 185 186 808 809 810 811 812 813 904 905 906 907 908 909 916 917 918 919 920 921 940 941 942 943 944 945 1144 1145 1146 1150 1151 1152 1528 1529 1530 1534 1535 1536 1720 1721 1722
184 185 186 808 809 810 811 812 813 904 905 906 907 908 909 916 917 918 919 920 921 940 941 942 943 944 945 1144 1145 1146 1150 1151 1152 1528 1529 1530 1534 1535 1536 1720 1721 1722
184 185 186 808 809 810 811 812 813 904 905 906 907 908 909 916 917 918 919 920 921 940 941 942 943 944 945 1144 1145 1146 1150 1151 1152 1528 1529 1530 1534 1535 1536 1720 1721 1722
187 188 189 808 809 810 811 812 813 904 905 906 907 908 909 916 917 918 919 920 921 940 941 942 943 944 945 1141 1142 1143 1147 1148 1149 1525 1526 1527 1531 1532 1533 1723 1724 1725
187 188 189 808 809 810 811 812 813 904 905 906 907 908 909 916 917 918 919 920 921 940 941 942 943 944 945 1141 1142 1143 1147 1148 1149 1525 1526 1527 1531 1532 1533 1723 1724 1725
187 188 189 808 809 810 811 812 813 904 905 906 907 908 909 916 917 918 919 920 921 940 941 942 943 944 945 1141 1142 1143 1147 1148 1149 1525 1526 1527 1531 1532 1533 1723 1724 1725
190 191 192 805 806 807 814 815 816 901 902 903 910 911 912 913 914 915 922 923 924 937 938 939 946 947 948 1144 1145 1146 1150 1151 1152 1528 1529 1530 1534 1535 1536 1726 1727 1728
190 191 192 805 806 807 814 815 816 901 902 903 910 911 912 913 914 915 922 923 924 937 938 939 946 947 948 1144 1145 1146 1150 1151 1152 1528 1529 1530 1534 1535 1536 1726 1727 1728
190 191 192 805 806 807 814 815 816 901 902 903 910 911 912 913 914 915 922 923 924 937 938 939 946 947 948 1144 1145 1146 1150 1151 1152 1528 1529 1530 1534 1535 1536 1726 1727 1728
193 194 195 769 770 771 775 776 777 973 974 975 982 983 984 997 998 999 1006 1007 1008 1009 1010 1011 1018 1019 1020 1105 1106 1107 1114 1115 1116 1153 1154 1155 1159 1160 1161 1729 1730 1731
193 194 195 769 770 771 775 776 777 973 974 975 982 983 984 997 998 999 1006 1007 1008 1009 1010 1011 1018 1019 1020 1105 1106 1107 1114 1115 1116 1153 1154 1155 1159 1160 1161 1729 1730 1731
193 194 195 769 770 771 775 776 777 973 974 975 982 983 984 997 998 999 1006 1007 1008 1009 1010 1011 1018 1019 1020 1105 1106 1107 1114 1115 1116 1153 1154 1155 1159 1160 1161 1729 1730 1731
196 197 198 772 773 774 778 779 780 976 977 978 979 980 981 1000 1001 1002 1003 1004 1005 1012 1013 1014 1015 1016 1017 1108 1109 1110 1111 1112 1113 1156 1157 1158 1162 1163 1164 1732 1733 1734
196 197 198 772 773 774 778 779 780 976 977 978 979 980 981 1000 1001 1002 1003 1004 1005 1012 1013 1014 1015 1016 1017 1108 1109 1110 1111 1112 1113 1156 1157 1158 1162 1163 1164 1732 1733 1734
196 197 198 772 773 774 778 779 780 976 977 978 979 980 981 1000 1001 1002 1003 1004 1005 1012 1013 1014 1015 1016 1017 1108 1109 1110 1111 1112 1113 1156 1157 1158 1162 1163 1164 1732 1733 1734
199 200 201 769 770 771 775 776 777 976 977 978 979 980 981 1000 1001 1002 1003 1004 1005 1012 1013 1014 1015 1016 1017 1108 1109 1110 1111 1112 1113 1153 1154 1155 1159 1160 1161 1735 1736 1737
199 200 201 769 770 771 775 776 777 976 977 978 979 980 981 1000 1001 1002 1003 1004 1005 1012 1013 1014 1015 1016 1017 1108 1109 1110 1111 1112 1113 1153 1154 1155 1159 1160 1161 1735 1736 1737
199 200 201 769 770 771 775 776 777 976 977 978 979 980 981 1000 1001 1002 1003 1004 1005 1012 1013 1014 1015 1016 1017 1108 1109 1110 1111 1112 1113 1153 1154 1155 1159 1160 1161 1735 1736 1737
202 203 204 772 773 774 778 779 780 973 974 975 982 983 984 997 998 999 1006 1007 1008 1009 1010 1011 1018 1019 1020 1105 1106 1107 1114 1115 1116 1156 1157 1158 1162 1163 1164 1738 1739 1740
202 203 204 772 773 774 778 779 780 973 974 975 982 983 984 997 998 999 1006 1007 1008 1009 1010 1011 1018 1019 1020 1105 1106 1107 1114 1115 1116 1156 1157 1158 1162 1163 1164 1738 1739 1740
202 203 204 772 773 774 778 779 780 973 974 975 982 983 984 997 998 999 1006 1007 1008 1009 1010 1011 1018 1019 1020 1105 1106 1107 1114 1115 1116 1156 1157 1158 1162 1163 1164 1738 1739 1740
205 206 207 781 782 783 787 788 789 961 962 963 970 971 972 985 986 987 994 995 996 1021 1022 1023 1030 1031 1032 1117 1118 1119 1126 1127 1128 1165 1166 1167 1171 1172 1173 1741 1742 1743
205 206 207 781 782 783 787 788 789 961 962 963 970 971 972 985 986 987 994 995 996 1021 1022 1023 1030 1031 1032 1117 1118 1119 1126 1127 1128 1165 1166 1167 1171 1172 1173 1741 1742 1743
205 206 207 781 782 783 787 788 789 961 962 963 970 971 972 985 986 987 994 995 996 1021 1022 1023 1030 1031 1032 1117 1118 1119 1126 1127 1128 1165 1166 1167 1171 1172 1173 1741 1742 1743
208 209 210 784 785 786 790 791 792 964 965 966 967 968 969 988 989 990 991 992 993 1024 1025 1026 1027 1028 1029 1120 1121 1122 1123 1124 1125 1168 1169 1170 1174 1175 1176 1744 1745 1746
208 209 210 784 785 786 790 791 792 964 965 966 967 968 969 988 989 990 991 992 993 1024 1025 1026 1027 1028 1029 1120 1121 1122 1123 1124 1125 1168 1169 1170 1174 1175 1176 1744 1745 1746
208 209 210 784 785 786 790 791 792 964 965 966 967 968 969 988 989 990 991 992 993 1024 1025 1026 1027 1028 1029 1120 1121 1122 1123 1124 1125 1168 1169 1170 1174 1175 1176 1744 1745 1746
211 212 213 781 782 783 787 788 789 964 965 966 967 968 969 988 989 990 991 992 993 1024 1025 1026 1027 1028 1029 1120 1121 1122 1123 1124 1125 1165 1166 1167 1171 1172 1173 1747 1748 1749
211 212 213 781 782 783 787 788 789 964 965 966 967 968 969 988 989 990 991 992 993 1024 1025 1026 1027 1028 1029 1120 1121 1122 1123 1124 1125 1165 1166 1167 1171 1172 1173 1747 1748 1749
211 212 213 781 782 783 787 788 789 964 965 966 967 968 969 988 989 990 991 992 993 1024 1025 1026 1027 1028 1029 1120 1121 1122 1123 1124 1125 1165 1166 1167 1171 1172 1173 1747 1748 1749
214 215 216 784 785 786 790 791 792 961 962 963 970 971 972 985 986 987 994 995 996 1021 1022 1023 1030 1031 1032 1117 1118 1119 1126 1127 1128 1168 1169 1170 1174 1175 1176 1750 1751 1752
214 215 216 784 785 786 790 791 792 961 962 963 970 971 972 985 986 987 994 995 996 1021 1022 1023 1030 1031 1032 1117 1118 1119 1126 1127 1128 1168 1169 1170 1174 1175 1176 1750 1751 1752
214 215 216 784 785 786 790 791 792 961 962 963 970 971 972 985 986 987 994 995 996 1021 1022 1023 1030 1031 1032 1117 1118 1119 1126 1127 1128 1168 1169 1170 1174 1175 1176 1750 1751 1752
217 218 219 793 794 795 799 800 801 973 974 975 982 983 984 997 998 999 1006 1007 1008 1033 1034 1035 1042 1043 1044 1129 1130 1131 1138 1139 1140 1177 1178 1179 1183 1184 1185 1753 1754 1755
217 218 219 793 794 795 799 800 801 973 974 975 982 983 984 997 998 999 1006 1007 1008 1033 1034 1035 1042 1043 1044 1129 1130 1131 1138 1139 1140 1177 1178 1179 1183 1184 1185 1753 1754 1755
217 218 219 793 794 795 799 800 801 973 974 975 982 983 984 997 998 999 1006 1007 1008 1033 1034 1035 1042 1043 1044 1129 1130 1131 1138 1139 1140 1177 1178 1179 1183 1184 1185 1753 1754 1755
220 221 222 796 797 798 802 803 804 976 977 978 979 980 981 1000 1001 1002 1003 1004 1005 1036 1037 1038 1039 1040 1041 1132 1133 1134 1135 1136 1137 1180 1181 1182 1186 1187 1188 1756 1757 1758
220 221 222 796 797 798 802 803 804 976 977 978 979 980 981 1000 1001 1002 1003 1004 1005 1036 1037 1038 1039 1040 1041 1132 1133 1134 1135 1136 1137 1180 1181 1182 1186 1187 1188 1756 1757 1758
220 221 222 796 797 798 802 803 804 976 977 978 979 980 981 1000 1001 1002 1003 1004 1005 1036 1037 1038 1039 1040 1041 1132 1133 1134 1135 1136 1137 1180 1181 1182 1186 1187 1188 1756 1757 1758
223 224 225 793 794 795 799 800 801 976 977 978 979 980 981 1000 1001 1002 1003 1004 1005 1036 1037 1038 1039 1040 1041 1132 1133 1134 1135 1136 1137 1177 1178 1179 1183 1184 1185 1759 1760 1761
223 224 225 793 794 795 799 800 801 976 977 978 979 980 981 1000 1001 1002 1003 1004 1005 1036 1037 1038 1039 1040 1041 1132 1133 1134 1135 1136 1137 1177 1178 1179 1183 1184 1185 1759 1760 1761
223 224 225 793 794 795 799 800 801 976 977 978 979 980 981 1000 1001 1002 1003 1004 1005 1036 1037 1038 1039 1040 1041 1132 1133 1134 1135 1136 1137 1177 1178 1179 1183 1184 1185 1759 1760 1761
226 227 228 796 797 798 802 803 804 973 974 975 982 983 984 997 998 999 1006 1007 1008 1033 1034 1035 1042 1043 1044 1129 1130 1131 1138 1139 1140 1180 1181 1182 1186 1187 1188 1762 1763 1764
226 227 228 796 797 798 802 803 804 973 974 975 982 983 984 997 998 999 1006 1007 1008 1033 1034 1035 1042 1043 1044 1129 1130 1131 1138 1139 1140 1180 1181 1182 1186 1187 1188 1762 1763 1764
226 227 228 796 797 798 802 803 804 973 974 975 982 983 984 997 998 999 1006 1007 1008 1033 1034 1035 1042 1043 1044 1129 1130 1131 1138 1139 1140 1180 1181 1182 1186 1187 1188 1762 1763 1764
229 230 231 805 806 807 811 812 813 961 962 963 970 971 972 985 986 987 994 995 996 1045 1046 1047 1054 1055 1056 1141 1142 1143 1150 1151 1152 1189 1190 1191 1195 1196 1197 1765 1766 1767
229 230 231 805 806 807 811 812 813 961 962 963 970 971 972 985 986 987 994 995 996 1045 1046 1047 1054 1055 1056 1141 1142 1143 1150 1151 1152 1189 1190 1191 1195 1196 1197 1765 1766 1767
229 230 231 805 806 807 811 812 813 961 962 963 970 971 972 985 986 987 994 995 996 1045 1046 1047 1054 1055 1056 1141 1142 1143 1150 1151 1152 1189 1190 1191 1195 1196 1197 1765 1766 1767
232 233 234 808 809 810 814 815 816 964 965 966 967 968 969 988 989 990 991 992 993 1048 1049 1050 1051 1052 1053 1144 1145 1146 1147 1148 1149 1192 1193 1194 1198 1199 1200 1768 1769 1770
232 233 234 808 809 810 814 815 816 964 965 966 967 968 969 988 989 990 991 992 993 1048 1049 1050 1051 1052 1053 1144 1145 1146 1147 1148 1149 1192 1193 1194 1198 1199 1200 1768 1769 1770
232 233 234 808 809 810 814 815 816 964 965 966 967 968 969 988 989 990 991 992 993 1048 1049 1050 1051 1052 1053 1144 1145 1146 1147 1148 1149 1192 1193 1194 1198 1199 1200 1768 1769 1770
235 236 237 805 806 807 811 812 813 964 965 966 967 968 969 988 989 990 991 992 993 1048 1049 1050 1051 1052 1053 1144 1145 1146 1147 1148 1149 1189 1190 1191 1195 1196 1197 1771 1772 1773
235 236 237 805 806 807 811 812 813 964 965 966 967 968 969 988 989 990 991 992 993 1048 1049 1050 1051 1052 1053 1144 1145 1146 1147 1148 1149 1189 1190 1191 1195 1196 1197 1771 1772 1773
235 236 237 805 806 807 811 812 813 964 965 966 967 968 969 988 989 990 991 992 993 1048 1049 1050 1051 1052 1053 1144 1145 1146 1147 1148 1149 1189 1190 1191 1195 1196 1197 1771 1772 1773
238 239 240 808 809 810 814 815 816 961 962 963 970 971 972 985 986 987 994 995 996 1045 1046 1047 1054 1055 1056 1141 1142 1143 1150 1151 1152 1192 1193 1194 1198 1199 1200 1774 1775 1776
238 239 240 808 809 810 814 815 816 961 962 963 970 971 972 985 986 987 994 995 996 1045 1046 1047 1054 1055 1056 1141 1142 1143 1150 1151 1152 1192 1193 1194 1198 1199 1200 1774 1775 1776
238 239 240 808 809 810 814 815 816 961 962 963 970 971 972 985 986 987 994 995 996 1045 1046 1047 1054 1055 1056 1141 1142 1143 1150 1151 1152 1192 1193 1194 1198 1199 1200 1774 1775 1776
241 242 243 817 818 819 823 824 825 961 962 963 970 971 972 1021 1022 1023 1030 1031 1032 1045 1046 1047 1054 1055 1056 1057 1058 1059 1066 1067 1068 1201 1202 1203 1207 1208 1209 1777 1778 1779
241 242 243 817 818 819 823 824 825 961 962 963 970 971 972 1021 1022 1023 1030 1031 1032 1045 1046 1047 1054 1055 1056 1057 1058 1059 1066 1067 1068 1201 1202 1203 1207 1208 1209 1777 1778 1779
241 242 243 817 818 819 823 824 825 961 962 963 970 971 972 1021 1022 1023 1030 1031 1032 1045 1046 1047 1054 1055 1056 1057 1058 1059 1066 1067 1068 1201 1202 1203 1207 1208 1209 1777 1778 1779
244 245 246 820 821 822 826 827 828 964 965 966 967 968 969 1024 1025 1026 1027 1028 1029 1048 1049 1050 1051 1052 1053 1060 1061 1062 1063 1064 1065 1204 1205 1206 1210 1211 1212 1780 1781 1782
244 245 246 820 821 822 826 827 828 964 965 966 967 968 969 1024 1025 1026 1027 1028 1029 1048 1049 1050 1051 1052 1053 1060 1061 1062 1063 1064 1065 1204 1205 1206 1210 1211 1212 1780 1781 1782
244 245 246 820 821 822 826 827 828 964 965 966 967 968 969 1024 1025 1026 1027 1028 1029 1048 1049 1050 1051 1052 1053 1060 1061 1062 1063 1064 1065 1204 1205 1206 1210 1211 1212 1780 1781 1782
247 248 249 817 818 819 823 824 825 964 965 966 967 968 969 1024 1025 1026 1027 1028 1029 1048 1049 1050 1051 1052 1053 1060 1061 1062 1063 1064 1065 1201 1202 1203 1207 1208 1209 1783 1784 1785
247 248 249 817 818 819 823 824 825 964 965 966 967 968 969 1024 1025 1026 1027 1028 1029 1048 1049 1050 1051 1052 1053 1060 1061 1062 1063 1064 1065 1201 1202 1203 1207 1208 1209 1783 1784 1785
247 248 249 817 818 819 823 824 825 964 965 966 967 968 969 1024 1025 1026 1027 1028 1029 1048 1049 1050 1051 1052 1053 1060 1061 1062 1063 1064 1065 1201 1202 1203 1207 1208 1209 1783 1784 1785
250 251 252 820 821 822 826 827 828 961 962 963 970 971 972 1021 1022 1023 1030 1031 1032 1045 1046 1047 1054 1055 1056 1057 1058 1059 1066 1067 1068 1204 1205 1206 1210 1211 1212 1786 1787 1788
250 251 252 820 821 822 826 827 828 961 962 963 970 971 972 1021 1022 1023 1030 1031 1032 1045 1046 1047 1054 1055 1056 1057 1058 1059 1066 1067 1068 1204 1205 1206 1210 1211 1212 1786 1787 1788
250 251 252 820 821 822 826 827 828 961 962 963 970 971 972 1021 1022 1023 1030 1031 1032 1045 1046 1047 1054 1055 1056 1057 1058 1059 1066 1067 1068 1204 1205 1206 1210 1211 1212 1786 1787 1788
253 254 255 829 830 831 835 836 837 973 974 975 982 983 984 1009 1010 1011 1018 1019 1020 1033 1034 1035 1042 1043 1044 1069 1070 1071 1078 1079 1080 1213 1214 1215 1219 1220 1221 1789 1790 1791
253 254 255 829 830 831 835 836 837 973 974 975 982 983 984 1009 1010 1011 1018 1019 1020 1033 1034 1035 1042 1043 1044 1069 1070 1071 1078 1079 1080 1213 1214 1215 1219 1220 1221 1789 1790 1791
253 254 255 829 830 831 835 836 837 973 974 975 982 983 984 1009 1010 1011 1018 1019 1020 1033 1034 1035 1042 1043 1044 1069 1070 1071 1078 1079 1080 1213 1214 1215 1219 1220 1221 1789 1790 1791
256 257 258 832 833 834 838 839 840 976 977 978 979 980 981 1012 1013 1014 1015 1016 1017 1036 1037 1038 1039 1040 1041 1072 1073 1074 1075 1076 1077 1216 1217 1218 1222 1223 1224 1792 1793 1794
256 257 258 832 833 834 838 839 840 976 977 978 979 980 981 1012 1013 1014 1015 1016 1017 1036 1037 1038 1039 1040 1041 1072 1073 1074 1075 1076 1077 1216 1217 1218 1222 1223 1224 1792 1793 1794
256 257 258 832 833 834 838 839 840 976 977 978 979 980 981 1012 1013 1014 1015 1016 1017 1036 1037 1038 1039 1040 1041 1072 1073 1074 1075 1076 1077 1216 1217 1218 1222 1223 1224 1792 1793 1794
259 260 261 829 830 831 835 836 837 976 977 978 979 980 981 1012 1013 1014 1015 1016 1017 1036 1037 1038 1039 1040 1041 1072 1073 1074 1075 1076 1077 1213 1214 1215 1219 1220 1221 1795 1796 1797
259 260 261 829 830 831 835 836 837 976 977 978 979 980 981 1012 1013 1014 1015 1016 1017 1036 1037 1038 1039 1040 1041 1072 1073 1074 1075 1076 1077 1213 1214 1215 1219 1220 1221 1795 1796 1797
259 260 261 829 830 831 835 836 837 976 977 978 979 980 981 1012 1013 1014 1015 1016 1017 1036 1037 1038 1039 1040 1041 1072 1073 1074 1075 1076 1077 1213 1214 1215 1219 1220 1221 1795 1796 1797
262 263 264 832 833 834 838 839 840 973 974 975 982 983 984 1009 1010 1011 1018 1019 1020 1033 1034 1035 1042 1043 1044 1069 1070 1071 1078 1079 1080 1216 1217 1218 1222 1223 1224 1798 1799 1800
262 263 264 832 833 834 838 839 840 973 974 975 982 983 984 1009 1010 1011 1018 1019 1020 1033 1034 1035 1042 1043 1044 1069 1070 1071 1078 1079 1080 1216 1217 1218 1222 1223 1224 1798 1799 1800
262 263 264 832 833 834 838 839 840 973 974 975 982 983 984 1009 1010 1011 1018 1019 1020 1033 1034 1035 1042 1043 1044 1069 1070 1071 1078 1079 1080 1216 1217 1218 1222 1223 1224 1798 1799 1800
265 266 267 841 842 843 847 848 849 985 986 987 994 995 996 1021 1022 1023 1030 1031 1032 1045 1046 1047 1054 1055 1056 1081 1082 1083 1090 1091 1092 1225 1226 1227 1231 1232 1233 1801 1802 1803
265 266 267 841 842 843 847 848 849 985 986 987 994 995 996 1021 1022 1023 1030 1031 1032 1045 1046 1047 1054 1055 1056 1081 1082 1083 1090 1091 1092 1225 1226 1227 1231 1232 1233 1801 1802 1803
265 266 267 841 842 843 847 848 849 985 986 987 994 995 996 1021 1022 1023 1030 1031 1032 1045 1046 1047 1054 1055 1056 1081 1082 1083 1090 1091 1092 1225 1226 1227 1231 1232 1233 1801 1802 1803
268 269 270 844 845 846 850 851 852 988 989 990 991 992 993 1024 1025 1026 1027 1028 1029 1048 1049 1050 1051 1052 1053 1084 1085 1086 1087 1088 1089 1228 1229 1230 1234 1235 1236 1804 1805 1806
268 269 270 844 845 846 850 851 852 988 989 990 991 992 993 1024 1025 1026 1027 1028 1029 1048 1049 1050 1051 1052 1053 1084 1085 1086 1087 1088 1089 1228 1229 1230 1234 1235 1236 1804 1805 1806
268 269 270 844 845 846 850 851 852 988 989 990 991 992 993 1024 1025 1026 1027 1028 1029 1048 1049 1050 1051 1052 1053 1084 1085 1086 1087 1088 1089 1228 1229 1230 1234 1235 1236 1804 1805 1806
271 272 273 841 842 843 847 848 849 988 989 990 991 992 993 1024 1025 1026 1027 1028 1029 1048 1049 1050 1051 1052 1053 1084 1085 1086 1087 1088 1089 1225 1226 1227 1231 1232 1233 1807 1808 1809
271 272 273 841 842 843 847 848 849 988 989 990 991 992 993 1024 1025 1026 1027 1028 1029 1048 1049 1050 1051 1052 1053 1084 1085 1086 1087 1088 1089 1225 1226 1227 1231 1232 1233 1807 1808 1809
271 272 273 841 842 843 847 848 849 988 989 990 991 992 993 1024 1025 1026 1027 1028 1029 1048 1049 1050 1051 1052 1053 1084 1085 1086 1087 1088 1089 1225 1226 1227 1231 1232 1233 1807 1808 1809
274 275 276 844 845 846 850 851 852 985 986 987 994 995 996 1021 1022 1023 1030 1031 1032 1045 1046 1047 1054 1055 1056 1081 1082 1083 1090 1091 1092 1228 1229 1230 1234 1235 1236 1810 1811 1812
274 275 276 844 845 846 850 851 852 985 986 987 994 995 996 1021 1022 1023 1030 1031 1032 1045 1046 1047 1054 1055 1056 1081 1082 1083 1090 1091 1092 1228 1229 1230 1234 1235 1236 1810 1811 1812
274 275 276 844 845 846 850 851 852 985 986 987 994 995 996 1021 1022 1023 1030 1031 1032 1045 1046 1047 1054 1055 1056 1081 1082 1083 1090 1091 1092 1228 1229 1230 1234 1235 1236 1810 1811 1812
277 278 279 853 854 855 859 860 861 997 998 999 1006 1007 1008 1009 1010 1011 1018 1019 1020 1033 1034 1035 1042 1043 1044 1093 1094 1095 1102 1103 1104 1237 1238 1239 1243 1244 1245 1813 1814 1815
277 278 279 853 854 855 859 860 861 997 998 999 1006 1007 1008 1009 1010 1011 1018 1019 1020 1033 1034 1035 1042 1043 1044 1093 1094 1095 1102 1103 1104 1237 1238 1239 1243 1244 1245 1813 1814 1815
277 278 279 853 854 855 859 860 861 997 998 999 1006 1007 1008 1009 1010 1011 1018 1019 1020 1033 1034 1035 1042 1043 1044 1093 1094 1095 1102 1103 1104 1237 1238 1239 1243 1244 1245 1813 1814 1815
280 281 282 856 857 858 862 863 864 1000 1001 1002 1003 1004 1005 1012 1013 1014 1015 1016 1017 1036 1037 1038 1039 1040 1041 1096 1097 1098 1099 1100 1101 1240 1241 1242 1246 1247 1248 1816 1817 1818
280 281 282 856 857 858 862 863 864 1000 1001 1002 1003 1004 1005 1012 1013 1014 1015 1016 1017 1036 1037 1038 1039 1040 1041 1096 1097 1098 1099 1100 1101 1240 1241 1242 1246 1247 1248 1816 1817 1818
280 281 282 856 857 858 862 863 864 1000 1001 1002 1003 1004 1005 1012 1013 1014 1015 1016 1017 1036 1037 1038 1039 1040 1041 1096 1097 1098 1099 1100 1101 1240 1241 1242 1246 1247 1248 1816 1817 1818
283 284 285 853 854 855 859 860 861 1000 1001 1002 1003 1004 1005 1012 1013 1014 1015 1016 1017 1036 1037 1038 1039 1040 1041 1096 1097 1098 1099 1100 1101 1237 1238 1239 1243 1244 1245 1819 1820 1821
283 284 285 853 854 855 859 860 861 1000 1001 1002 1003 1004 1005 1012 1013 1014 1015 1016 1017 1036 1037 1038 1039 1040 1041 1096 1097 1098 1099 1100 1101 1237 1238 1239 1243 1244 1245 1819 1820 1821
283 284 285 853 854 855 859 860 861 1000 1001 1002 1003 1004 1005 1012 1013 1014 1015 1016 1017 1036 1037 1038 1039 1040 1041 1096 1097 1098 1099 1100 1101 1237 1238 1239 1243 1244 1245 1819 1820 1821
286 287 288 856 857 858 862 863 864 997 998 999 1006 1007 1008 1009 1010 1011 1018 1019 1020 1033 1034 1035 1042 1043 1044 1093 1094 1095 1102 1103 1104 1240 1241 1242 1246 1247 1248 1822 1823 1824
286 287 288 856 857 858 862 863 864 997 998 999 1006 1007 1008 1009 1010 1011 1018 1019 1020 1033 1034 1035 1042 1043 1044 1093 1094 1095 1102 1103 1104 1240 1241 1242 1246 1247 1248 1822 1823 1824
286 287 288 856 857 858 862 863 864 997 998 999 1006 1007 1008 1009 1010 1011 1018 1019 1020 1033 1034 1035 1042 1043 1044 1093 1094 1095 1102 1103 1104 1240 1241 1242 1246 1247 1248 1822 1823 1824
289 290 291 865 866 867 871 872 873 1009 1010 1011 1018 1019 1020 1069 1070 1071 1078 1079 1080 1093 1094 1095 1102 1103 1104 1105 1106 1107 1114 1115 1116 1249 1250 1251 1255 1256 1257 1825 1826 1827
289 290 291 865 866 867 871 872 873 1009 1010 1011 1018 1019 1020 1069 1070 1071 1078 1079 1080 1093 1094 1095 1102 1103 1104 1105 1106 1107 1114 1115 1116 1249 1250 1251 1255 1256 1257 1825 1826 1827
289 290 291 865 866 867 871 872 873 1009 1010 1011 1018 1019 1020 1069 1070 1071 1078 1079 1080 1093 1094 1095 1102 1103 1104 1105 1106 1107 1114 1115 1116 1249 1250 1251 1255 1256 1257 1825 1826 1827
292 293 294 868 869 870 874 875 876 1012 1013 1014 1015 1016 1017 1072 1073 1074 1075 1076 1077 1096 1097 1098 1099 1100 1101 1108 1109 1110 1111 1112 1113 1252 1253 1254 1258 1259 1260 1828 1829 1830
292 293 294 868 869 870 874 875 876 1012 1013 1014 1015 1016 1017 1072 1073 1074 1075 1076 1077 1096 1097 1098 1099 1100 1101 1108 1109 1110 1111 1112 1113 1252 1253 1254 1258 1259 1260 1828 1829 1830
292 293 294 868 869 870 874 875 876 1012 1013 1014 1015 1016 1017 1072 1073 1074 1075 1076 1077 1096 1097 1098 1099 1100 1101 1108 1109 1110 1111 1112 1113 1252 1253 1254 1258 1259 1260 1828 1829 1830
295 296 297 865 866 867 871 872 873 1012 1013 1014 1015 1016 1017 1072 1073 1074 1075 1076 1077 1096 1097 1098 1099 1100 1101 1108 1109 1110 1111 1112 1113 1249 1250 1251 1255 1256 1257 1831 1832 1833
295 296 297 865 866 867 871 872 873 1012 1013 1014 1015 1016 1017 1072 1073 1074 1075 1076 1077 1096 1097 1098 1099 1100 1101 1108 1109 1110 1111 1112 1113 1249 1250 1251 1255 1256 1257 1831 1832 1833
295 296 297 865 866 867 871 872 873 1012 1013 1014 1015 1016 1017 1072 1073 1074 1075 1076 1077 1096 1097 1098 1099 1100 1101 1108 1109 1110 1111 1112 1113 1249 1250 1251 1255 1256 1257 1831 1832 1833
298 299 300 868 869 870 874 875 876 1009 1010 1011 1018 1019 1020 1069 1070 1071 1078 1079 1080 1093 1094 1095 1102 1103 1104 1105 1106 1107 1114 1115 1116 1252 1253 1254 1258 1259 1260 1834 1835 1836
298 299 300 868 869 870 874 875 876 1009 1010 1011 1018 1019 1020 1069 1070 1071 1078 1079 1080 1093 1094 1095 1102 1103 1104 1105 1106 1107 1114 1115 1116 1252 1253 1254 1258 1259 1260 1834 1835 1836
298 299 300 868 869 870 874 875 876 1009 1010 1011 1018 1019 1020 1069 1070 1071 1078 1079 1080 1093 1094 1095 1102 1103 1104 1105 1106 1107 1114 1115 1116 1252 1253 1254 1258 1259 1260 1834 1835 1836
301 302 303 877 878 879 883 884 885 1021 1022 1023 1030 1031 1032 1057 1058 1059 1066 1067 1068 1081 1082 1083 1090 1091 1092 1117 1118 1119 1126 1127 1128 1261 1262 1263 1267 1268 1269 1837 1838 1839
301 302 303 877 878 879 883 884 885 1021 1022 1023 1030 1031 1032 1057 1058 1059 1066 1067 1068 1081 1082 1083 1090 1091 1092 1117 1118 1119 1126 1127 1128 1261 1262 1263 1267 1268 1269 1837 1838 1839
301 302 303 877 878 879 883 884 885 1021 1022 1023 1030 1031 1032 1057 1058 1059 1066 1067 1068 1081 1082 1083 1090 1091 1092 1117 1118 1119 1126 1127 1128 1261 1262 1263 1267 1268 1269 1837 1838 1839
304 305 306 880 881 882 886 887 888 1024 1025 1026 1027 1028 1029 1060 1061 1062 1063 1064 1065 1084 1085 1086 1087 1088 1089 1120 1121 1122 1123 1124 1125 1264 1265 1266 1270 1271 1272 1840 1841 1842
304 305 306 880 881 882 886 887 888 1024 1025 1026 1027 1028 1029 1060 1061 1062 1063 1064 1065 1084 1085 1086 1087 1088 1089 1120 1121 1122 1123 1124 1125 1264 1265 1266 1270 1271 1272 1840 1841 1842
304 305 306 880 881 882 886 887 888 1024 1025 1026 1027 1028 1029 1060 1061 1062 1063 1064 1065 1084 1085 1086 1087 1088 1089 1120 1121 1122 1123 1124 1125 1264 1265 1266 1270 1271 1272 1840 1841 1842
307 308 309 877 878 879 883 884 885 1024 1025 1026 1027 1028 1029 1060 1061 1062 1063 1064 1065 1084 1085 1086 1087 1088 1089 1120 1121 1122 1123 1124 1125 1261 1262 1263 1267 1268 1269 1843 1844 1845
307 308 309 877 878 879 883 884 885 1024 1025 1026 1027 1028 1029 1060 1061 1062 1063 1064 1065 1084 1085 1086 1087 1088 1089 1120 1121 1122 1123 1124 1125 1261 1262 1263 1267 1268 1269 1843 1844 1845
307 308 309 877 878 879 883 884 885 1024 1025 1026 1027 1028 1029 1060 1061 1062 1063 1064 1065 1084 1085 1086 1087 1088 1089 1120 1121 1122 1123 1124 1125 1261 1262 1263 1267 1268 1269 1843 1844 1845
310 311 312 880 881 882 886 887 888 1021 1022 1023 1030 1031 1032 1057 1058 1059 1066 1067 1068 1081 1082 1083 1090 1091 1092 1117 1118 1119 1126 1127 1128 1264 1265 1266 1270 1271 1272 1846 1847 1848
310 311 312 880 881 882 886 887 888 1021 1022 1023 1030 1031 1032 1057 1058 1059 1066 1067 1068 1081 1082 1083 1090 1091 1092 1117 1118 1119 1126 1127 1128 1264 1265 1266 1270 1271 1272 1846 1847 1848
310 311 312 880 881 882 886 887 888 1021 1022 1023 1030 1031 1032 1057 1058 1059 1066 1067 1068 1081 1082 1083 1090 1091 1092 1117 1118 1119 1126 1127 1128 1264 1265 1266 1270 1271 1272 1846 1847 1848
313 314 315 889 890 891 895 896 897 1033 1034 1035 1042 1043 1044 1069 1070 1071 1078 1079 1080 1093 1094 1095 1102 1103 1104 1129 1130 1131 1138 1139 1140 1273 1274 1275 1279 1280 1281 1849 1850 1851
313 314 315 889 890 891 895 896 897 1033 1034 1035 1042 1043 1044 1069 1070 1071 1078 1079 1080 1093 1094 1095 1102 1103 1104 1129 1130 1131 1138 1139 1140 1273 1274 1275 1279 1280 1281 1849 1850 1851
313 314 315 889 890 891 895 896 897 1033 1034 1035 1042 1043 1044 1069 1070 1071 1078 1079 1080 1093 1094 1095 1102 1103 1104 1129 1130 1131 1138 1139 1140 1273 1274 1275 1279 1280 1281 1849 1850 1851
316 317 318 892 893 894 898 899 900 1036 1037 1038 1039 1040 1041 1072 1073 1074 1075 1076 1077 1096 1097 1098 1099 1100 1101 1132 1133 1134 1135 1136 1137 1276 1277 1278 1282 1283 1284 1852 1853 1854
316 317 318 892 893 894 898 899 900 1036 1037 1038 1039 1040 1041 1072 1073 1074 1075 1076 1077 1096 1097 1098 1099 1100 1101 1132 1133 1134 1135 1136 1137 1276 1277 1278 1282 1283 1284 1852 1853 1854
316 317 318 892 893 894 898 899 900 1036 1037 1038 1039 1040 1041 1072 1073 1074 1075 1076 1077 1096 1097 1098 1099 1100 1101 1132 1133 1134 1135 1136 1137 1276 1277 1278 1282 1283 1284 1852 1853 1854
319 320 321 889 890 891 895 896 897 1036 1037 1038 1039 1040 1041 1072 1073 1074 1075 1076 1077 1096 1097 1098 1099 1100 1101 1132 1133 1134 1135 1136 1137 1273 1274 1275 1279 1280 1281 1855 1856 1857
319 320 321 889 890 891 895 896 897 1036 1037 1038 1039 1040 1041 1072 1073 1074 1075 1076 1077 1096 1097 1098 1099 1100 1101 1132 1133 1134 1135 1136 1137 1273 1274 1275 1279 1280 1281 1855 1856 1857
319 320 321 889 890 891 895 896 897 1036 1037 1038 1039 1040 1041 1072 1073 1074 1075 1076 1077 1096 1097 1098 1099 1100 1101 1132 1133 1134 1135 1136 1137 1273 1274 1275 1279 1280 1281 1855 1856 1857
322 323 324 892 893 894 898 899 900 1033 1034 1035 1042 1043 1044 1069 1070 1071 1078 1079 1080 1093 1094 1095 1102 1103 1104 1129 1130 1131 1138 1139 1140 1276 1277 1278 1282 1283 1284 1858 1859 1860
322 323 324 892 893 894 898 899 900 1033 1034 1035 1042 1043 1044 1069 1070 1071 1078 1079 1080 1093 1094 1095 1102 1103 1104 1129 1130 1131 1138 1139 1140 1276 1277 1278 1282 1283 1284 1858 1859 1860
322 323 324 892 893 894 898 899 900 1033 1034 1035 1042 1043 1044 1069 1070 1071 1078 1079 1080 1093 1094 1095 1102 1103 1104 1129 1130 1131 1138 1139 1140 1276 1277 1278 1282 1283 1284 1858 1859 1860
325 326 327 901 902 903 907 908 909 1045 1046 1047 1054 1055 1056 1057 1058 1059 1066 1067 1068 1081 1082 1083 1090 1091 1092 1141 1142 1143 1150 1151 1152 1285 1286 1287 1291 1292 1293 1861 1862 1863
325 326 327 901 902 903 907 908 909 1045 1046 1047 1054 1055 1056 1057 1058 1059 1066 1067 1068 1081 1082 1083 1090 1091 1092 1141 1142 1143 1150 1151 1152 1285 1286 1287 1291 1292 1293 1861 1862 1863
325 326 327 901 902 903 907 908 909 1045 1046 1047 1054 1055 1056 1057 1058 1059 1066 1067 1068 1081 1082 1083 1090 1091 1092 1141 1142 1143 1150 1151 1152 1285 1286 1287 1291 1292 1293 1861 1862 1863
328 329 330 904 905 906 910 911 912 1048 1049 1050 1051 1052 1053 1060 1061 1062 1063 1064 1065 1084 1085 1086 1087 1088 1089 1144 1145 1146 1147 1148 1149 1288 1289 1290 1294 1295 1296 1864 1865 1866
328 329 330 904 905 906 910 911 912 1048 1049 1050 1051 1052 1053 1060 1061 1062 1063 1064 1065 1084 1085 1086 1087 1088 1089 1144 1145 1146 1147 1148 1149 1288 1289 1290 1294 1295 1296 1864 1865 1866
328 329 330 904 905 906 910 911 912 1048 1049 1050 1051 1052 1053 1060 1061 1062 1063 1064 1065 1084 1085 1086 1087 1088 1089 1144 1145 1146 1147 1148 1149 1288 1289 1290 1294 1295 1296 1864 1865 1866
331 332 333 901 902 903 907 908 909 1048 1049 1050 1051 1052 1053 1060 1061 1062 1063 1064 1065 1084 1085 1086 1087 1088 1089 1144 1145 1146 1147 1148 1149 1285 1286 1287 1291 1292 1293 1867 1868 1869
331 332 333 901 902 903 907 908 909 1048 1049 1050 1051 1052 1053 1060 1061 1062 1063 1064 1065 1084 1085 1086 1087 1088 1089 1144 1145 1146 1147 1148 1149 1285 1286 1287 1291 1292 1293 1867 1868 1869
331 332 333 901 902 903 907 908 909 1048 1049 1050 1051 1052 1053 1060 1061 1062 1063 1064 1065 1084 1085 1086 1087 1088 1089 1144 1145 1146 1147 1148 1149 1285 1286 1287 1291 1292 1293 1867 1868 1869
334 335 336 904 905 906 910 911 912 1045 1046 1047 1054 1055 1056 1057 1058 1059 1066 1067 1068 1081 1082 1083 1090 1091 1092 1141 1142 1143 1150 1151 1152 1288 1289 1290 1294 1295 1296 1870 1871 1872
334 335 336 904 905 906 910 911 912 1045 1046 1047 1054 1055 1056 1057 1058 1059 1066 1067 1068 1081 1082 1083 1090 1091 1092 1141 1142 1143 1150 1151 1152 1288 1289 1290 1294 1295 1296 1870 1871 1872
334 335 336 904 905 906 910 911 912 1045 1046 1047 1054 1055 1056 1057 1058 1059 1066 1067 1068 1081 1082 1083 1090 1091 1092 1141 1142 1143 1150 1151 1152 1288 1289 1290 1294 1295 1296 1870 1871 1872
337 338 339 913 914 915 919 920 921 961 962 963 970 971 972 1057 1058 1059 1066 1067 1068 1117 1118 1119 1126 1127 1128 1141 1142 1143 1150 1151 1152 1297 1298 1299 1303 1304 1305 1873 1874 1875
337 338 339 913 914 915 919 920 921 961 962 963 970 971 972 1057 1058 1059 1066 1067 1068 1117 1118 1119 1126 1127 1128 1141 1142 1143 1150 1151 1152 1297 1298 1299 1303 1304 1305 1873 1874 1875
337 338 339 913 914 915 919 920 921 961 962 963 970 971 972 1057 1058 1059 1066 1067 1068 1117 1118 1119 1126 1127 1128 1141 1142 1143 1150 1151 1152 1297 1298 1299 1303 1304 1305 1873 1874 1875
340 341 342 916 917 918 922 923 924 964 965 966 967 968 969 1060 1061 1062 1063 1064 1065 1120 1121 1122 1123 1124 1125 1144 1145 1146 1147 1148 1149 1300 1301 1302 1306 1307 1308 1876 1877 1878
340 341 342 916 917 918 922 923 924 964 965 966 967 968 969 1060 1061 1062 1063 1064 1065 1120 1121 1122 1123 1124 1125 1144 1145 1146 1147 1148 1149 1300 1301 1302 1306 1307 1308 1876 1877 1878
340 341 342 916 917 918 922 923 924 964 965 966 967 968 969 1060 1061 1062 1063 1064 1065 1120 1121 1122 1123 1124 1125 1144 1145 1146 1147 1148 1149 1300 1301 1302 1306 1307 1308 1876 1877 1878
343 344 345 913 914 915 919 920 921 964 965 966 967 968 969 1060 1061 1062 1063 1064 1065 1120 1121 1122 1123 1124 1125 1144 1145 1146 1147 1148 1149 1297 1298 1299 1303 1304 1305 1879 1880 1881
343 344 345 913 914 915 919 920 921 964 965 966 967 968 969 1060 1061 1062 1063 1064 1065 1120 1121 1122 1123 1124 1125 1144 1145 1146 1147 1148 1149 1297 1298 1299 1303 1304 1305 1879 1880 1881
343 344 345 913 914 915 919 920 921 964 965 966 967 968 969 1060 1061 1062 1063 1064 1065 1120 1121 1122 1123 1124 1125 1144 1145 1146 1147 1148 1149 1297 1298 1299 1303 1304 1305 1879 1880 1881
346 347 348 916 917 918 922 923 924 961 962 963 970 971 972 1057 1058 1059 1066 1067 1068 1117 1118 1119 1126 1127 1128 1141 1142 1143 1150 1151 1152 1300 1301 1302 1306 1307 1308 1882 1883 1884
346 347 348 916 917 918 922 923 924 961 962 963 970 971 972 1057 1058 1059 1066 1067 1068 1117 1118 1119 1126 1127 1128 1141 1142 1143 1150 1151 1152 1300 1301 1302 1306 1307 1308 1882 1883 1884
346 347 348 916 917 918 922 923 924 961 962 963 970 971 972 1057 1058 1059 1066 1067 1068 1117 1118 1119 1126 1127 1128 1141 1142 1143 1150 1151 1152 1300 1301 1302 1306 1307 1308 1882 1883 1884
349 350 351 925 926 927 931 932 933 973 974 975 982 983 984 1069 1070 1071 1078 1079 1080 1105 1106 1107 1114 1115 1116 1129 1130 1131 1138 1139 1140 1309 1310 1311 1315 1316 1317 1885 1886 1887
349 350 351 925 926 927 931 932 933 973 974 975 982 983 984 1069 1070 1071 1078 1079 1080 1105 1106 1107 1114 1115 1116 1129 1130 1131 1138 1139 1140 1309 1310 1311 1315 1316 1317 1885 1886 1887
349 350 351 925 926 927 931 932 933 973 974 975 982 983 984 1069 1070 1071 1078 1079 1080 1105 1106 1107 1114 1115 1116 1129 1130 1131 1138 1139 1140 1309 1310 1311 1315 1316 1317 1885 1886 1887
352 353 354 928 929 930 934 935 936 976 977 978 979 980 981 1072 1073 1074 1075 1076 1077 1108 1109 1110 1111 1112 1113 1132 1133 1134 1135 1136 1137 1312 1313 1314 1318 1319 1320 1888 1889 1890
352 353 354 928 929 930 934 935 936 976 977 978 979 980 981 1072 1073 1074 1075 1076 1077 1108 1109 1110 1111 1112 1113 1132 1133 1134 1135 1136 1137 1312 1313 1314 1318 1319 1320 1888 1889 1890
352 353 354 928 929 930 934 935 936 976 977 978 979 980 981 1072 1073 1074 1075 1076 1077 1108 1109 1110 1111 1112 1113 1132 1133 1134 1135 1136 1137 1312 1313 1314 1318 1319 1320 1888 1889 1890
355 356 357 925 926 927 931 932 933 976 977 978 979 980 981 1072 1073 1074 1075 1076 1077 1108 1109 1110 1111 1112 1113 1132 1133 1134 1135 1136 1137 1309 1310 1311 1315 1316 1317 1891 1892 1893
355 356 357 925 926 927 931 932 933 976 977 978 979 980 981 1072 1073 1074 1075 1076 1077 1108 1109 1110 1111 1112 1113 1132 1133 1134 1135 1136 1137 1309 1310 1311 1315 1316 1317 1891 1892 1893
355 356 357 925 926 927 931 932 933 976 977 978 979 980 981 1072 1073 1074 1075 1076 1077 1108 1109 1110 1111 1112 1113 1132 1133 1134 1135 1136 1137 1309 1310 1311 1315 1316 1317 1891 1892 1893
358 359 360 928 929 930 934 935 936 973 974 975 982 983 984 1069 1070 1071 1078 1079 1080 1105 1106 1107 1114 1115 1116 1129 1130 1131 1138 1139 1140 1312 1313 1314 1318 1319 1320 1894 1895 1896
358 359 360 928 929 930 934 935 936 973 974 975 982 983 984 1069 1070 1071 1078 1079 1080 1105 1106 1107 1114 1115 1116 1129 1130 1131 1138 1139 1140 1312 1313 1314 1318 1319 1320 1894 1895 1896
358 359 360 928 929 930 934 935 936 973 974 975 982 983 984 1069 1070 1071 1078 1079 1080 1105 1106 1107 1114 1115 1116 1129 1130 1131 1138 1139 1140 1312 1313 1314 1318 1319 1320 1894 1895 1896
361 362 363 937 938 939 943 944 945 985 986 987 994 995 996 1081 1082 1083 1090 1091 1092 1117 1118 1119 1126 1127 1128 1141 1142 1143 1150 1151 1152 1321 1322 1323 1327 1328 1329 1897 1898 1899
361 362 363 937 938 939 943 944 945 985 986 987 994 995 996 1081 1082 1083 1090 1091 1092 1117 1118 1119 1126 1127 1128 1141 1142 1143 1150 1151 1152 1321 1322 1323 1327 1328 1329 1897 1898 1899
361 362 363 937 938 939 943 944 945 985 986 987 994 995 996 1081 1082 1083 1090 1091 1092 1117 1118 1119 1126 1127 1128 1141 1142 1143 1150 1151 1152 1321 1322 1323 1327 1328 1329 1897 1898 1899
364 365 366 940 941 942 946 947 948 988 989 990 991 992 993 1084 1085 1086 1087 1088 1089 1120 1121 1122 1123 1124 1125 1144 1145 1146 1147 1148 1149 1324 1325 1326 1330 1331 1332 1900 1901 1902
364 365 366 940 941 942 946 947 948 988 989 990 991 992 993 1084 1085 1086 1087 1088 1089 1120 1121 1122 1123 1124 1125 1144 1145 1146 1147 1148 1149 1324 1325 1326 1330 1331 1332 1900 1901 1902
364 365 366 940 941 942 946 947 948 988 989 990 991 992 993 1084 1085 1086 1087 1088 1089 1120 1121 1122 1123 1124 1125 1144 1145 1146 1147 1148 1149 1324 1325 1326 1330 1331 1332 1900 1901 1902
367 368 369 937 938 939 943 944 945 988 989 990 991 992 993 1084 1085 1086 1087 1088 1089 1120 1121 1122 1123 1124 1125 1144 1145 1146 1147 1148 1149 1321 1322 1323 1327 1328 1329 1903 1904 1905
367 368 369 937 938 939 943 944 945 988 989 990 991 992 993 1084 1085 1086 1087 1088 1089 1120 1121 1122 1123 1124 1125 1144 1145 1146 1147 1148 1149 1321 1322 1323 1327 1328 1329 1903 1904 1905
367 368 369 937 938 939 943 944 945 988 989 990 991 992 993 1084 1085 1086 1087 1088 1089 1120 1121 1122 1123 1124 1125 1144 1145 1146 1147 1148 1149 1321 1322 1323 1327 1328 1329 1903 1904 1905
370 371 372 940 941 942 946 947 948 985 986 987 994 995 996 1081 1082 1083 1090 1091 1092 1117 1118 1119 1126 1127 1128 1141 1142 1143 1150 1151 1152 1324 1325 1326 1330 1331 1332 1906 1907 1908
370 371 372 940 941 942 946 947 948 985 986 987 994 995 996 1081 1082 1083 1090 1091 1092 1117 1118 1119 1126 1127 1128 1141 1142 1143 1150 1151 1152 1324 1325 1326 1330 1331 1332 1906 1907 1908
370 371 372 940 941 942 946 947 948 985 986 987 994 995 996 1081 1082 1083 1090 1091 1092 1117 1118 1119 1126 1127 1128 1141 1142 1143 1150 1151 1152 1324 1325 1326 1330 1331 1332 1906 1907 1908
373 374 375 949 950 951 955 956 957 997 998 999 1006 1007 1008 1093 1094 1095 1102 1103 1104 1105 1106 1107 1114 1115 1116 1129 1130 1131 1138 1139 1140 1333 1334 1335 1339 1340 1341 1909 1910 1911
373 374 375 949 950 951 955 956 957 997 998 999 1006 1007 1008 1093 1094 1095 1102 1103 1104 1105 1106 1107 1114 1115 1116 1129 1130 1131 1138 1139 1140 1333 1334 1335 1339 1340 1341 1909 1910 1911
373 374 375 949 950 951 955 956 957 997 998 999 1006 1007 1008 1093 1094 1095 1102 1103 1104 1105 1106 1107 1114 1115 1116 1129 1130 1131 1138 1139 1140 1333 1334 1335 1339 1340 1341 1909 1910 1911
376 377 378 952 953 954 958 959 960 1000 1001 1002 1003 1004 1005 1096 1097 1098 1099 1100 1101 1108 1109 1110 1111 1112 1113 1132 1133 1134 1135 1136 1137 1336 1337 1338 1342 1343 1344 1912 1913 1914
376 377 378 952 953 954 958 959 960 1000 1001 1002 1003 1004 1005 1096 1097 1098 1099 1100 1101 1108 1109 1110 1111 1112 1113 1132 1133 1134 1135 1136 1137 1336 1337 1338 1342 1343 1344 1912 1913 1914
376 377 378 952 953 954 958 959 960 1000 1001 1002 1003 1004 1005 1096 1097 1098 1099 1100 1101 1108 1109 1110 1111 1112 1113 1132 1133 1134 1135 1136 1137 1336 1337 1338 1342 1343 1344 1912 1913 1914
379 380 381 949 950 951 955 956 957 1000 1001 1002 1003 1004 1005 1096 1097 1098 1099 1100 1101 1108 1109 1110 1111 1112 1113 1132 1133 1134 1135 1136 1137 1333 1334 1335 1339 1340 1341 1915 1916 1917
379 380 381 949 950 951 955 956 957 1000 1001 1002 1003 1004 1005 1096 1097 1098 1099 1100 1101 1108 1109 1110 1111 1112 1113 1132 1133 1134 1135 1136 1137 1333 1334 1335 1339 1340 1341 1915 1916 1917
379 380 381 949 950 951 955 956 957 1000 1001 1002 1003 1004 1005 1096 1097 1098 1099 1100 1101 1108 1109 1110 1111 1112 1113 1132 1133 1134 1135 1136 1137 1333 1334 1335 1339 1340 1341 1915 1916 1917
382 383 384 952 953 954 958 959 960 997 998 999 1006 1007 1008 1093 1094 1095 1102 1103 1104 1105 1106 1107 1114 1115 1116 1129 1130 1131 1138 1139 1140 1336 1337 1338 1342 1343 1344 1918 1919 1920
382 383 384 952 953 954 958 959 960 997 998 999 1006 1007 1008 1093 1094 1095 1102 1103 1104 1105 1106 1107 1114 1115 1116 1129 1130 1131 1138 1139 1140 1336 1337 1338 1342 1343 1344 1918 1919 1920
382 383 384 952 953 954 958 959 960 997 998 999 1006 1007 1008 1093 1094 1095 1102 1103 1104 1105 1106 1107 1114 1115 1116 1129 1130 1131 1138 1139 1140 1336 1337 1338 1342 1343 1344 1918 1919 1920
385 386 387 961 962 963 967 968 969 1165 1166 1167 1174 1175 1176 1189 1190 1191 1198 1199 1200 1201 1202 1203 1210 1211 1212 1297 1298 1299 1306 1307 1308 1345 1346 1347 1351 1352 1353 1921 1922 1923
385 386 387 961 962 963 967 968 969 1165 1166 1167 1174 1175 1176 1189 1190 1191 1198 1199 1200 1201 1202 1203 1210 1211 1212 1297 1298 1299 1306 1307 1308 1345 1346 1347 1351 1352 1353 1921 1922 1923
385 386 387 961 962 963 967 968 969 1165 1166 1167 1174 1175 1176 1189 1190 1191 1198 1199 1200 1201 1202 1203 1210 1211 1212 1297 1298 1299 1306 1307 1308 1345 1346 1347 1351 1352 1353 1921 1922 1923
388 389 390 964 965 966 970 971 972 1168 1169 1170 1171 1172 1173 1192 1193 1194 1195 1196 1197 1204 1205 1206 1207 1208 1209 1300 1301 1302 1303 1304 1305 1348 1349 1350 1354 1355 1356 1924 1925 1926
388 389 390 964 965 966 970 971 972 1168 1169 1170 1171 1172 1173 1192 1193 1194 1195 1196 1197 1204 1205 1206 1207 1208 1209 1300 1301 1302 1303 1304 1305 1348 1349 1350 1354 1355 1356 1924 1925 1926
388 389 390 964 965 966 970 971 972 1168 1169 1170 1171 1172 1173 1192 1193 1194 1195 1196 1197 1204 1205 1206 1207 1208 1209 1300 1301 1302 1303 1304 1305 1348 1349 1350 1354 1355 1356 1924 1925 1926
391 392 393 961 962 963 967 968 969 1168 1169 1170 1171 1172 1173 1192 1193 1194 1195 1196 1197 1204 1205 1206 1207 1208 1209 1300 1301 1302 1303 1304 1305 1345 1346 1347 1351 1352 1353 1927 1928 1929
391 392 393 961 962 963 967 968 969 1168 1169 1170 1171 1172 1173 1192 1193 1194 1195 1196 1197 1204 1205 1206 1207 1208 1209 1300 1301 1302 1303 1304 1305 1345 1346 1347 1351 1352 1353 1927 1928 1929
391 392 393 961 962 963 967 968 969 1168 1169 1170 1171 1172 1173 1192 1193 1194 1195 1196 1197 1204 1205 1206 1207 1208 1209 1300 1301 1302 1303 1304 1305 1345 1346 1347 1351 1352 1353 1927 1928 1929
394 395 396 964 965 966 970 971 972 1165 1166 1167 1174 1175 1176 1189 1190 1191 1198 1199 1200 1201 1202 1203 1210 1211 1212 1297 1298 1299 1306 1307 1308 1348 1349 1350 1354 1355 1356 1930 1931 1932
394 395 396 964 965 966 970 971 972 1165 1166 1167 1174 1175 1176 1189 1190 1191 1198 1199 1200 1201 1202 1203 1210 1211 1212 1297 1298 1299 1306 1307 1308 1348 1349 1350 1354 1355 1356 1930 1931 1932
394 395 396 964 965 966 970 971 972 1165 1166 1167 1174 1175 1176 1189 1190 1191 1198 1199 1200 1201 1202 1203 1210 1211 1212 1297 1298 1299 1306 1307 1308 1348 1349 1350 1354 1355 1356 1930 1931 1932
397 398 399 973 974 975 979 980 981 1153 1154 1155 1162 1163 1164 1177 1178 1179 1186 1187 1188 1213 1214 1215 1222 1223 1224 1309 1310 1311 1318 1319 1320 1357 1358 1359 1363 1364 1365 1933 1934 1935
397 398 399 973 974 975 979 980 981 1153 1154 1155 1162 1163 1164 1177 1178 1179 1186 1187 1188 1213 1214 1215 1222 1223 1224 1309 1310 1311 1318 1319 1320 1357 1358 1359 1363 1364 1365 1933 1934 1935
397 398 399 973 974 975 979 980 981 1153 1154 1155 1162 1163 1164 1177 1178 1179 1186 1187 1188 1213 1214 1215 1222 1223 1224 1309 1310 1311 1318 1319 1320 1357 1358 1359 1363 1364 1365 1933 1934 1935
400 401 402 976 977 978 982 983 984 1156 1157 1158 1159 1160 1161 1180 1181 1182 1183 1184 1185 1216 1217 1218 1219 1220 1221 1312 1313 1314 1315 1316 1317 1360 1361 1362 1366 1367 1368 1936 1937 1938
400 401 402 976 977 978 982 983 984 1156 1157 1158 1159 1160 1161 1180 1181 1182 1183 1184 1185 1216 1217 1218 1219 1220 1221 1312 1313 1314 1315 1316 1317 1360 1361 1362 1366 1367 1368 1936 1937 1938
400 401 402 976 977 978 982 983 984 1156 1157 1158 1159 1160 1161 1180 1181 1182 1183 1184 1185 1216 1217 1218 1219 1220 1221 1312 1313 1314 1315 1316 1317 1360 1361 1362 1366 1367 1368 1936 1937 1938
403 404 405 973 974 975 979 980 981 1156 1157 1158 1159 1160 1161 1180 1181 1182 1183 1184 1185 1216 1217 1218 1219 1220 1221 1312 1313 1314 1315 1316 1317 1357 1358 1359 1363 1364 1365 1939 1940 1941
403 404 405 973 974 975 979 980 981 1156 1157 1158 1159 1160 1161 1180 1181 1182 1183 1184 1185 1216 1217 1218 1219 1220 1221 1312 1313 1314 1315 1316 1317 1357 1358 1359 1363 1364 1365 1939 1940 1941
403 404 405 973 974 975 979 980 981 1156 1157 1158 1159 1160 1161 1180 1181 1182 1183 1184 1185 1216 1217 1218 1219 1220 1221 1312 1313 1314 1315 1316 1317 1357 1358 1359 1363 1364 1365 1939 1940 1941
406 407 408 976 977 978 982 983 984 1153 1154 1155 1162 1163 1164 1177 1178 1179 1186 1187 1188 1213 1214 1215 1222 1223 1224 1309 1310 1311 1318 1319 1320 1360 1361 1362 1366 1367 1368 1942 1943 1944
406 407 408 976 977 978 982 983 984 1153 1154 1155 1162 1163 1164 1177 1178 1179 1186 1187 1188 1213 1214 1215 1222 1223 1224 1309 1310 1311 1318 1319 1320 1360 1361 1362 1366 1367 1368 1942 1943 1944
406 407 408 976 977 978 982 983 984 1153 1154 1155 1162 1163 1164 1177 1178 1179 1186 1187 1188 1213 1214 1215 1222 1223 1224 1309 1310 1311 1318 1319 1320 1360 1361 1362 1366 1367 1368 1942 1943 1944
409 410 411 985 986 987 991 992 993 1165 1166 1167 1174 1175 1176 1189 1190 1191 1198 1199 1200 1225 1226 1227 1234 1235 1236 1321 1322 1323 1330 1331 1332 1369 1370 1371 1375 1376 1377 1945 1946 1947
409 410 411 985 986 987 991 992 993 1165 1166 1167 1174 1175 1176 1189 1190 1191 1198 1199 1200 1225 1226 1227 1234 1235 1236 1321 1322 1323 1330 1331 1332 1369 1370 1371 1375 1376 1377 1945 1946 1947
409 410 411 985 986 987 991 992 993 1165 1166 1167 1174 1175 1176 1189 1190 1191 1198 1199 1200 1225 1226 1227 1234 1235 1236 1321 1322 1323 1330 1331 1332 1369 1370 1371 1375 1376 1377 1945 1946 1947
412 413 414 988 989 990 994 995 996 1168 1169 1170 1171 1172 1173 1192 1193 1194 1195 1196 1197 1228 1229 1230 1231 1232 1233 1324 1325 1326 1327 1328 1329 1372 1373 1374 1378 1379 1380 1948 1949 1950
412 413 414 988 989 990 994 995 996 1168 1169 1170 1171 1172 1173 1192 1193 1194 1195 1196 1197 1228 1229 1230 1231 1232 1233 1324 1325 1326 1327 1328 1329 1372 1373 1374 1378 1379 1380 1948 1949 1950
412 413 414 988 989 990 994 995 996 1168 1169 1170 1171 1172 1173 1192 1193 1194 1195 1196 1197 1228 1229 1230 1231 1232 1233 1324 1325 1326 1327 1328 1329 1372 1373 1374 1378 1379 1380 1948 1949 1950
415 416 417 985 986 987 991 992 993 1168 1169 1170 1171 1172 1173 1192 1193 1194 1195 1196 1197 1228 1229 1230 1231 1232 1233 1324 1325 1326 1327 1328 1329 1369 1370 1371 1375 1376 1377 1951 1952 1953
415 416 417 985 986 987 991 992 993 1168 1169 1170 1171 1172 1173 1192 1193 1194 1195 1196 1197 1228 1229 1230 1231 1232 1233 1324 1325 1326 1327 1328 1329 1369 1370 1371 1375 1376 1377 1951 1952 1953
415 416 417 985 986 987 991 992 993 1168 1169 1170 1171 1172 1173 1192 1193 1194 1195 1196 1197 1228 1229 1230 1231 1232 1233 1324 1325 1326 1327 1328 1329 1369 1370 1371 1375 1376 1377 1951 1952 1953
418 419 420 988 989 990 994 995 996 1165 1166 1167 1174 1175 1176 1189 1190 1191 1198 1199 1200 1225 1226 1227 1234 1235 1236 1321 1322 1323 1330 1331 1332 1372 1373 1374 1378 1379 1380 1954 1955 1956
418 419 420 988 989 990 994 995 996 1165 1166 1167 1174 1175 1176 1189 1190 1191 1198 1199 1200 1225 1226 1227 1234 1235 1236 1321 1322 1323 1330 1331 1332 1372 1373 1374 1378 1379 1380 1954 1955 1956
418 419 420 988 989 990 994 995 996 1165 1166 1167 1174 1175 1176 1189 1190 1191 1198 1199 1200 1225 1226 1227 1234 1235 1236 1321 1322 1323 1330 1331 1332 1372 1373 1374 1378 1379 1380 1954 1955 1956
421 422 423 997 998 999 1003 1004 1005 1153 1154 1155 1162 1163 1164 1177 1178 1179 1186 1187 1188 1237 1238 1239 1246 1247 1248 1333 1334 1335 1342 1343 1344 1381 1382 1383 1387 1388 1389 1957 1958 1959
421 422 423 997 998 999 1003 1004 1005 1153 1154 1155 1162 1163 1164 1177 1178 1179 1186 1187 1188 1237 1238 1239 1246 1247 1248 1333 1334 1335 1342 1343 1344 1381 1382 1383 1387 1388 1389 1957 1958 1959
421 422 423 997 998 999 1003 1004 1005 1153 1154 1155 1162 1163 1164 1177 1178 1179 1186 1187 1188 1237 1238 1239 1246 1247 1248 1333 1334 1335 1342 1343 1344 1381 1382 1383 1387 1388 1389 1957 1958 1959
424 425 426 1000 1001 1002 1006 1007 1008 1156 1157 1158 1159 1160 1161 1180 1181 1182 1183 1184 1185 1240 1241 1242 1243 1244 1245 1336 1337 1338 1339 1340 1341 1384 1385 1386 1390 1391 1392 1960 1961 1962
424 425 426 1000 1001 1002 1006 1007 1008 1156 1157 1158 1159 1160 1161 1180 1181 1182 1183 1184 1185 1240 1241 1242 1243 1244 1245 1336 1337 1338 1339 1340 1341 1384 1385 1386 1390 1391 1392 1960 1961 1962
424 425 426 1000 1001 1002 1006 1007 1008 1156 1157 1158 1159 1160 1161 1180 1181 1182 1183 1184 1185 1240 1241 1242 1243 1244 1245 1336 1337 1338 1339 1340 1341 1384 1385 1386 1390 1391 1392 1960 1961 1962
427 428 429 997 998 999 1003 1004 1005 1156 1157 1158 1159 1160 1161 1180 1181 1182 1183 1184 1185 1240 1241 1242 1243 1244 1245 1336 1337 1338 1339 1340 1341 1381 1382 1383 1387 1388 1389 1963 1964 1965
427 428 429 997 998 999 1003 1004 1005 1156 1157 1158 1159 1160 1161 1180 1181 1182 1183 1184 1185 1240 1241 1242 1243 1244 1245 1336 1337 1338 1339 1340 1341 1381 1382 1383 1387 1388 1389 1963 1964 1965
427 428 429 997 998 999 1003 1004 1005 1156 1157 1158 1159 1160 1161 1180 1181 1182 1183 1184 1185 1240 1241 1242 1243 1244 1245 1336 1337 1338 1339 1340 1341 1381 1382 1383 1387 1388 1389 1963 1964 1965
430 431 432 1000 1001 1002 1006 1007 1008 1153 1154 1155 1162 1163 1164 1177 1178 1179 1186 1187 1188 1237 1238 1239 1246 1247 1248 1333 1334 1335 1342 1343 1344 1384 1385 1386 1390 1391 1392 1966 1967 1968
430 431 432 1000 1001 1002 1006 1007 1008 1153 1154 1155 1162 1163 1164 1177 1178 1179 1186 1187 1188 1237 1238 1239 1246 1247 1248 1333 1334 1335 1342 1343 1344 1384 1385 1386 1390 1391 1392 1966 1967 1968
430 431 432 1000 1001 1002 1006 1007 1008 1153 1154 1155 1162 1163 1164 1177 1178 1179 1186 1187 1188 1237 1238 1239 1246 1247 1248 1333 1334 1335 1342 1343 1344 1384 1385 1386 1390 1391 1392 1966 1967 1968
433 434 435 1009 1010 1011 1015 1016 1017 1153 1154 1155 1162 1163 1164 1213 1214 1215 1222 1223 1224 1237 1238 1239 1246 1247 1248 1249 1250 1251 1258 1259 1260 1393 1394 1395 1399 1400 1401 1969 1970 1971
433 434 435 1009 1010 1011 1015 1016 1017 1153 1154 1155 1162 1163 1164 1213 1214 1215 1222 1223 1224 1237 1238 1239 1246 1247 1248 1249 1250 1251 1258 1259 1260 1393 1394 1395 1399 1400 1401 1969 1970 1971
433 434 435 1009 1010 1011 1015 1016 1017 1153 1154 1155 1162 1163 1164 1213 1214 1215 1222 1223 1224 1237 1238 1239 1246 1247 1248 1249 1250 1251 1258 1259 1260 1393 1394 1395 1399 1400 1401 1969 1970 1971
436 437 438 1012 1013 1014 1018 1019 1020 1156 1157 1158 1159 1160 1161 1216 1217 1218 1219 1220 1221 1240 1241 1242 1243 1244 1245 1252 1253 1254 1255 1256 1257 1396 1397 1398 1402 1403 1404 1972 1973 1974
436 437 438 1012 1013 1014 1018 1019 1020 1156 1157 1158 1159 1160 1161 1216 1217 1218 1219 1220 1221 1240 1241 1242 1243 1244 1245 1252 1253 1254 1255 1256 1257 1396 1397 1398 1402 1403 1404 1972 1973 1974
436 437 438 1012 1013 1014 1018 1019 1020 1156 1157 1158 1159 1160 1161 1216 1217 1218 1219 1220 1221 1240 1241 1242 1243 1244 1245 1252 1253 1254 1255 1256 1257 1396 1397 1398 1402 1403 1404 1972 1973 1974
439 440 441 1009 1010 1011 1015 1016 1017 1156 1157 1158 1159 1160 1161 1216 1217 1218 1219 1220 1221 1240 1241 1242 1243 1244 1245 1252 1253 1254 1255 1256 1257 1393 1394 1395 1399 1400 1401 1975 1976 1977
439 440 441 1009 1010 1011 1015 1016 1017 1156 1157 1158 1159 1160 1161 1216 1217 1218 1219 1220 1221 1240 1241 1242 1243 1244 1245 1252 1253 1254 1255 1256 1257 1393 1394 1395 1399 1400 1401 1975 1976 1977
439 440 441 1009 1010 1011 1015 1016 1017 1156 1157 1158 1159 1160 1161 1216 1217 1218 1219 1220 1221 1240 1241 1242 1243 1244 1245 1252 1253 1254 1255 1256 1257 1393 1394 1395 1399 1400 1401 1975 1976 1977
442 443 444 1012 1013 1014 1018 1019 1020 1153 1154 1155 1162 1163 1164 1213 1214 1215 1222 1223 1224 1237 1238 1239 1246 1247 1248 1249 1250 1251 1258 1259 1260 1396 1397 1398 1402 1403 1404 1978 1979 1980
442 443 444 1012 1013 1014 1018 1019 1020 1153 1154 1155 1162 1163 1164 1213 1214 1215 1222 1223 1224 1237 1238 1239 1246 1247 1248 1249 1250 1251 1258 1259 1260 1396 1397 1398 1402 1403 1404 1978 1979 1980
442 443 444 1012 1013 1014 1018 1019 1020 1153 1154 1155 1162 1163 1164 1213 1214 1215 1222 1223 1224 1237 1238 1239 1246 1247 1248 1249 1250 1251 1258 1259 1260 1396 1397 1398 1402 1403 1404 1978 1979 1980
445 446 447 1021 1022 1023 1027 1028 1029 1165 1166 1167 1174 1175 1176 1201 1202 1203 1210 1211 1212 1225 1226 1227 1234 1235 1236 1261 1262 1263 1270 1271 1272 1405 1406 1407 1411 1412 1413 1981 1982 1983
445 446 447 1021 1022 1023 1027 1028 1029 1165 1166 1167 1174 1175 1176 1201 1202 1203 1210 1211 1212 1225 1226 1227 1234 1235 1236 1261 1262 1263 1270 1271 1272 1405 1406 1407 1411 1412 1413 1981 1982 1983
445 446 447 1021 1022 1023 1027 1028 1029 1165 1166 1167 1174 1175 1176 1201 1202 1203 1210 1211 1212 1225 1226 1227 1234 1235 1236 1261 1262 1263 1270 1271 1272 1405 1406 1407 1411 1412 1413 1981 1982 1983
448 449 450 1024 1025 1026 1030 1031 1032 1168 1169 1170 1171 1172 1173 1204 1205 1206 1207 1208 1209 1228 1229 1230 1231 1232 1233 1264 1265 1266 1267 1268 1269 1408 1409 1410 1414 1415 1416 1984 1985 1986
448 449 450 1024 1025 1026 1030 1031 1032 1168 1169 1170 1171 1172 1173 1204 1205 1206 1207 1208 1209 1228 1229 1230 1231 1232 1233 1264 1265 1266 1267 1268 1269 1408 1409 1410 1414 1415 1416 1984 1985 1986
448 449 450 1024 1025 1026 1030 1031 1032 1168 1169 1170 1171 1172 1173 1204 1205 1206 1207 1208 1209 1228 1229 1230 1231 1232 1233 1264 1265 1266 1267 1268 1269 1408 1409 1410 1414 1415 1416 1984 1985 1986
451 452 453 1021 1022 1023 1027 1028 1029 1168 1169 1170 1171 1172 1173 1204 1205 1206 1207 1208 1209 1228 1229 1230 1231 1232 1233 1264 1265 1266 1267 1268 1269 1405 1406 1407 1411 1412 1413 1987 1988 1989
451 452 453 1021 1022 1023 1027 1028 1029 1168 1169 1170 1171 1172 1173 1204 1205 1206 1207 1208 1209 1228 1229 1230 1231 1232 1233 1264 1265 1266 1267 1268 1269 1405 1406 1407 1411 1412 1413 1987 1988 1989
451 452 453 1021 1022 1023 1027 1028 1029 1168 1169 1170 1171 1172 1173 1204 1205 1206 1207 1208 1209 1228 1229 1230 1231 1232 1233 1264 1265 1266 1267 1268 1269 1405 1406 1407 1411 1412 1413 1987 1988 1989
454 455 456 1024 1025 1026 1030 1031 1032 1165 1166 1167 1174 1175 1176 1201 1202 1203 1210 1211 1212 1225 1226 1227 1234 1235 1236 1261 1262 1263 1270 1271 1272 1408 1409 1410 1414 1415 1416 1990 1991 1992
454 455 456 1024 1025 1026 1030 1031 1032 1165 1166 1167 1174 1175 1176 1201 1202 1203 1210 1211 1212 1225 1226 1227 1234 1235 1236 1261 1262 1263 1270 1271 1272 1408 1409 1410 1414 1415 1416 1990 1991 1992
454 455 456 1024 1025 1026 1030 1031 1032 1165 1166 1167 1174 1175 1176 1201 1202 1203 1210 1211 1212 1225 1226 1227 1234 1235 1236 1261 1262 1263 1270 1271 1272 1408 1409 1410 1414 1415 1416 1990 1991 1992
457 458 459 1033 1034 1035 1039 1040 1041 1177 1178 1179 1186 1187 1188 1213 1214 1215 1222 1223 1224 1237 1238 1239 1246 1247 1248 1273 1274 1275 1282 1283 1284 1417 1418 1419 1423 1424 1425 1993 1994 1995
457 458 459 1033 1034 1035 1039 1040 1041 1177 1178 1179 1186 1187 1188 1213 1214 1215 1222 1223 1224 1237 1238 1239 1246 1247 1248 1273 1274 1275 1282 1283 1284 1417 1418 1419 1423 1424 1425 1993 1994 1995
457 458 459 1033 1034 1035 1039 1040 1041 1177 1178 1179 1186 1187 1188 1213 1214 1215 1222 1223 1224 1237 1238 1239 1246 1247 1248 1273 1274 1275 1282 1283 1284 1417 1418 1419 1423 1424 1425 1993 1994 1995
460 461 462 1036 1037 1038 1042 1043 1044 1180 1181 1182 1183 1184 1185 1216 1217 1218 1219 1220 1221 1240 1241 1242 1243 1244 1245 1276 1277 1278 1279 1280 1281 1420 1421 1422 1426 1427 1428 1996 1997 1998
460 461 462 1036 1037 1038 1042 1043 1044 1180 1181 1182 1183 1184 1185 1216 1217 1218 1219 1220 1221 1240 1241 1242 1243 1244 1245 1276 1277 1278 1279 1280 1281 1420 1421 1422 1426 1427 1428 1996 1997 1998
460 461 462 1036 1037 1038 1042 1043 1044 1180 1181 1182 1183 1184 1185 1216 1217 1218 1219 1220 1221 1240 1241 1242 1243 1244 1245 1276 1277 1278 1279 1280 1281 1420 1421 1422 1426 1427 1428 1996 1997 1998
463 464 465 1033 1034 1035 1039 1040 1041 1180 1181 1182 1183 1184 1185 1216 1217 1218 1219 1220 1221 1240 1241 1242 1243 1244 1245 1276 1277 1278 1279 1280 1281 1417 1418 1419 1423 1424 1425 1999 2000 2001
463 464 465 1033 1034 1035 1039 1040 1041 1180 1181 1182 1183 1184 1185 1216 1217 1218 1219 1220 1221 1240 1241 1242 1243 1244 1245 1276 1277 1278 1279 1280 1281 1417 1418 1419 1423 1424 1425 1999 2000 2001
463 464 465 1033 1034 1035 1039 1040 1041 1180 1181 1182 1183 1184 1185 1216 1217 1218 1219 1220 1221 1240 1241 1242 1243 1244 1245 1276 1277 1278 1279 1280 1281 1417 1418 1419 1423 1424 1425 1999 2000 2001
466 467 468 1036 1037 1038 1042 1043 1044 1177 1178 1179 1186 1187 1188 1213 1214 1215 1222 1223 1224 1237 1238 1239 1246 1247 1248 1273 1274 1275 1282 1283 1284 1420 1421 1422 1426 1427 1428 2002 2003 2004
466 467 468 1036 1037 1038 1042 1043 1044 1177 1178 1179 1186 1187 1188 1213 1214 1215 1222 1223 1224 1237 1238 1239 1246 1247 1248 1273 1274 1275 1282 1283 1284 1420 1421 1422 1426 1427 1428 2002 2003 2004
466 467 468 1036 1037 1038 1042 1043 1044 1177 1178 1179 1186 1187 1188 1213 1214 1215 1222 1223 1224 1237 1238 1239 1246 1247 1248 1273 1274 1275 1282 1283 1284 1420 1421 1422 1426 1427 1428 2002 2003 2004
469 470 471 1045 1046 1047 1051 1052 1053 1189 1190 1191 1198 1199 1200 1201 1202 1203 1210 1211 1212 1225 1226 1227 1234 1235 1236 1285 1286 1287 1294 1295 1296 1429 1430 1431 1435 1436 1437 2005 2006 2007
469 470 471 1045 1046 1047 1051 1052 1053 1189 1190 1191 1198 1199 1200 1201 1202 1203 1210 1211 1212 1225 1226 1227 1234 1235 1236 1285 1286 1287 1294 1295 1296 1429 1430 1431 1435 1436 1437 2005 2006 2007
469 470 471 1045 1046 1047 1051 1052 1053 1189 1190 1191 1198 1199 1200 1201 1202 1203 1210 1211 1212 1225 1226 1227 1234 1235 1236 1285 1286 1287 1294 1295 1296 1429 1430 1431 1435 1436 1437 2005 2006 2007
472 473 474 1048 1049 1050 1054 1055 1056 1192 1193 1194 1195 1196 1197 1204 1205 1206 1207 1208 1209 1228 1229 1230 1231 1232 1233 1288 1289 1290 1291 1292 1293 1432 1433 1434 1438 1439 1440 2008 2009 2010
472 473 474 1048 1049 1050 1054 1055 1056 1192 1193 1194 1195 1196 1197 1204 1205 1206 1207 1208 1209 1228 1229 1230 1231 1232 1233 1288 1289 1290 1291 1292 1293 1432 1433 1434 1438 1439 1440 2008 2009 2010
472 473 474 1048 1049 1050 1054 1055 1056 1192 1193 1194 1195 1196 1197 1204 1205 1206 1207 1208 1209 1228 1229 1230 1231 1232 1233 1288 1289 1290 1291 1292 1293 1432 1433 1434 1438 1439 1440 2008 2009 2010
475 476 477 1045 1046 1047 1051 1052 1053 1192 1193 1194 1195 1196 1197 1204 1205 1206 1207 1208 1209 1228 1229 1230 1231 1232 1233 1288 1289 1290 1291 1292 1293 1429 1430 1431 1435 1436 1437 2011 2012 2013
475 476 477 1045 1046 1047 1051 1052 1053 1192 1193 1194 1195 1196 1197 1204 1205 1206 1207 1208 1209 1228 1229 1230 1231 1232 1233 1288 1289 1290 1291 1292 1293 1429 1430 1431 1435 1436 1437 2011 2012 2013
475 476 477 1045 1046 1047 1051 1052 1053 1192 1193 1194 1195 1196 1197 1204 1205 1206 1207 1208 1209 1228 1229 1230 1231 1232 1233 1288 1289 1290 1291 1292 1293 1429 1430 1431 1435 1436 1437 2011 2012 2013
478 479 480 1048 1049 1050 1054 1055 1056 1189 1190 1191 1198 1199 1200 1201 1202 1203 1210 1211 1212 1225 1226 1227 1234 1235 1236 1285 1286 1287 1294 1295 1296 1432 1433 1434 1438 1439 1440 2014 2015 2016
478 479 480 1048 1049 1050 1054 1055 1056 1189 1190 1191 1198 1199 1200 1201 1202 1203 1210 1211 1212 1225 1226 1227 1234 1235 1236 1285 1286 1287 1294 1295 1296 1432 1433 1434 1438 1439 1440 2014 2015 2016
478 479 480 1048 1049 1050 1054 1055 1056 1189 1190 1191 1198 1199 1200 1201 1202 1203 1210 1211 1212 1225 1226 1227 1234 1235 1236 1285 1286 1287 1294 1295 1296 1432 1433 1434 1438 1439 1440 2014 2015 2016
481 482 483 1057 1058 1059 1063 1064 1065 1201 1202 1203 1210 1211 1212 1261 1262 1263 1270 1271 1272 1285 1286 1287 1294 1295 1296 1297 1298 1299 1306 1307 1308 1441 1442 1443 1447 1448 1449 2017 2018 2019
481 482 483 1057 1058 1059 1063 1064 1065 1201 1202 1203 1210 1211 1212 1261 1262 1263 1270 1271 1272 1285 1286 1287 1294 1295 1296 1297 1298 1299 1306 1307 1308 1441 1442 1443 1447 1448 1449 2017 2018 2019
481 482 483 1057 1058 1059 1063 1064 1065 1201 1202 1203 1210 1211 1212 1261 1262 1263 1270 1271 1272 1285 1286 1287 1294 1295 1296 1297 1298 1299 1306 1307 1308 1441 1442 1443 1447 1448 1449 2017 2018 2019
484 485 486 1060 1061 1062 1066 1067 1068 1204 1205 1206 1207 1208 1209 1264 1265 1266 1267 1268 1269 1288 1289 1290 1291 1292 1293 1300 1301 1302 1303 1304 1305 1444 1445 1446 1450 1451 1452 2020 2021 2022
484 485 486 1060 1061 1062 1066 1067 1068 1204 1205 1206 1207 1208 1209 1264 1265 1266 1267 1268 1269 1288 1289 1290 1291 1292 1293 1300 1301 1302 1303 1304 1305 1444 1445 1446 1450 1451 1452 2020 2021 2022
484 485 486 1060 1061 1062 1066 1067 1068 1204 1205 1206 1207 1208 1209 1264 1265 1266 1267 1268 1269 1288 1289 1290 1291 1292 1293 1300 1301 1302 1303 1304 1305 1444 1445 1446 1450 1451 1452 2020 2021 2022
487 488 489 1057 1058 1059 1063 1064 1065 1204 1205 1206 1207 1208 1209 1264 1265 1266 1267 1268 1269 1288 1289 1290 1291 1292 1293 1300 1301 1302 1303 1304 1305 1441 1442 1443 1447 1448 1449 2023 2024 2025
487 488 489 1057 1058 1059 1063 1064 1065 1204 1205 1206 1207 1208 1209 1264 1265 1266 1267 1268 1269 1288 1289 1290 1291 1292 1293 1300 1301 1302 1303 1304 1305 1441 1442 1443 1447 1448 1449 2023 2024 2025
487 488 489 1057 1058 1059 1063 1064 1065 1204 1205 1206 1207 1208 1209 1264 1265 1266 1267 1268 1269 1288 1289 1290 1291 1292 1293 1300 1301 1302 1303 1304 1305 1441 1442 1443 1447 1448 1449 2023 2024 2025
490 491 492 1060 1061 1062 1066 1067 1068 1201 1202 1203 1210 1211 1212 1261 1262 1263 1270 1271 1272 1285 1286 1287 1294 1295 1296 1297 1298 1299 1306 1307 1308 1444 1445 1446 1450 1451 1452 2026 2027 2028
490 491 492 1060 1061 1062 1066 1067 1068 1201 1202 1203 1210 1211 1212 1261 1262 1263 1270 1271 1272 1285 1286 1287 1294 1295 1296 1297 1298 1299 1306 1307 1308 1444 1445 1446 1450 1451 1452 2026 2027 2028
490 491 492 1060 1061 1062 1066 1067 1068 1201 1202 1203 1210 1211 1212 1261 1262 1263 1270 1271 1272 1285 1286 1287 1294 1295 1296 1297 1298 1299 1306 1307 1308 1444 1445 1446 1450 1451 1452 2026 2027 2028
493 494 495 1069 1070 1071 1075 1076 1077 1213 1214 1215 1222 1223 1224 1249 1250 1251 1258 1259 1260 1273 1274 1275 1282 1283 1284 1309 1310 1311 1318 1319 1320 1453 1454 1455 1459 1460 1461 2029 2030 2031
493 494 495 1069 1070 1071 1075 1076 1077 1213 1214 1215 1222 1223 1224 1249 1250 1251 1258 1259 1260 1273 1274 1275 1282 1283 1284 1309 1310 1311 1318 1319 1320 1453 1454 1455 1459 1460 1461 2029 2030 2031
493 494 495 1069 1070 1071 1075 1076 1077 1213 1214 1215 1222 1223 1224 1249 1250 1251 1258 1259 1260 1273 1274 1275 1282 1283 1284 1309 1310 1311 1318 1319 1320 1453 1454 1455 1459 1460 1461 2029 2030 2031
496 497 498 1072 1073 1074 1078 1079 1080 1216 1217 1218 1219 1220 1221 1252 1253 1254 1255 1256 1257 1276 1277 1278 1279 1280 1281 1312 1313 1314 1315 1316 1317 1456 1457 1458 1462 1463 1464 2032 2033 2034
496 497 498 1072 1073 1074 1078 1079 1080 1216 1217 1218 1219 1220 1221 1252 1253 1254 1255 1256 1257 1276 1277 1278 1279 1280 1281 1312 1313 1314 1315 1316 1317 1456 1457 1458 1462 1463 1464 2032 2033 2034
496 497 498 1072 1073 1074 1078 1079 1080 1216 1217 1218 1219 1220 1221 1252 1253 1254 1255 1256 1257 1276 1277 1278 1279 1280 1281 1312 1313 1314 1315 1316 1317 1456 1457 1458 1462 1463 1464 2032 2033 2034
499 500 501 1069 1070 1071 1075 1076 1077 1216 1217 1218 1219 1220 1221 1252 1253 1254 1255 1256 1257 1276 1277 1278 1279 1280 1281 1312 1313 1314 1315 1316 1317 1453 1454 1455 1459 1460 1461 2035 2036 2037
499 500 501 1069 1070 1071 1075 1076 1077 1216 1217 1218 1219 1220 1221 1252 1253 1254 1255 1256 1257 1276 1277 1278 1279 1280 1281 1312 1313 1314 1315 1316 1317 1453 1454 1455 1459 1460 1461 2035 2036 2037
499 500 501 1069 1070 1071 1075 1076 1077 1216 1217 1218 1219 1220 1221 1252 1253 1254 1255 1256 1257 1276 1277 1278 1279 1280 1281 1312 1313 1314 1315 1316 1317 1453 1454 1455 1459 1460 1461 2035 2036 2037
502 503 504 1072 1073 1074 1078 1079 1080 1213 1214 1215 1222 1223 1224 1249 1250 1251 1258 1259 1260 1273 1274 1275 1282 1283 1284 1309 1310 1311 1318 1319 1320 1456 1457 1458 1462 1463 1464 2038 2039 2040
502 503 504 1072 1073 1074 1078 1079 1080 1213 1214 1215 1222 1223 1224 1249 1250 1251 1258 1259 1260 1273 1274 1275 1282 1283 1284 1309 1310 1311 1318 1319 1320 1456 1457 1458 1462 1463 1464 2038 2039 2040
502 503 504 1072 1073 1074 1078 1079 1080 1213 1214 1215 1222 1223 1224 1249 1250 1251 1258 1259 1260 1273 1274 1275 1282 1283 1284 1309 1310 1311 1318 1319 1320 1456 1457 1458 1462 1463 1464 2038 2039 2040
505 506 507 1081 1082 1083 1087 1088 1089 1225 1226 1227 1234 1235 1236 1261 1262 1263 1270 1271 1272 1285 1286 1287 1294 1295 1296 1321 1322 1323 1330 1331 1332 1465 1466 1467 1471 1472 1473 2041 2042 2043
505 506 507 1081 1082 1083 1087 1088 1089 1225 1226 1227 1234 1235 1236 1261 1262 1263 1270 1271 1272 1285 1286 1287 1294 1295 1296 1321 1322 1323 1330 1331 1332 1465 1466 1467 1471 1472 1473 2041 2042 2043
505 506 507 1081 1082 1083 1087 1088 1089 1225 1226 1227 1234 1235 1236 1261 1262 1263 1270 1271 1272 1285 1286 1287 1294 1295 1296 1321 1322 1323 1330 1331 1332 1465 1466 1467 1471 1472 1473 2041 2042 2043
508 509 510 1084 1085 1086 1090 1091 1092 1228 1229 1230 1231 1232 1233 1264 1265 1266 1267 1268 1269 1288 1289 1290 1291 1292 1293 1324 1325 1326 1327 1328 1329 1468 1469 1470 1474 1475 1476 2044 2045 2046
508 509 510 1084 1085 1086 1090 1091 1092 1228 1229 1230 1231 1232 1233 1264 1265 1266 1267 1268 1269 1288 1289 1290 1291 1292 1293 1324 1325 1326 1327 1328 1329 1468 1469 1470 1474 1475 1476 2044 2045 2046
508 509 510 1084 1085 1086 1090 1091 1092 1228 1229 1230 1231 1232 1233 1264 1265 1266 1267 1268 1269 1288 1289 1290 1291 1292 1293 1324 1325 1326 1327 1328 1329 1468 1469 1470 1474 1475 1476 2044 2045 2046
511 512 513 1081 1082 1083 1087 1088 1089 1228 1229 1230 1231 1232 1233 1264 1265 1266 1267 1268 1269 1288 1289 1290 1291 1292 1293 1324 1325 1326 1327 1328 1329 1465 1466 1467 1471 1472 1473 2047 2048 2049
511 512 513 1081 1082 1083 1087 1088 1089 1228 1229 1230 1231 1232 1233 1264 1265 1266 1267 1268 1269 1288 1289 1290 1291 1292 1293 1324 1325 1326 1327 1328 1329 1465 1466 1467 1471 1472 1473 2047 2048 2049
511 512 513 1081 1082 1083 1087 1088 1089 1228 1229 1230 1231 1232 1233 1264 1265 1266 1267 1268 1269 1288 1289 1290 1291 1292 1293 1324 1325 1326 1327 1328 1329 1465 1466 1467 1471 1472 1473 2047 2048 2049
514 515 516 1084 1085 1086 1090 1091 1092 1225 1226 1227 1234 1235 1236 1261 1262 1263 1270 1271 1272 1285 1286 1287 1294 1295 1296 1321 1322 1323 1330 1331 1332 1468 1469 1470 1474 1475 1476 2050 2051 2052
514 515 516 1084 1085 1086 1090 1091 1092 1225 1226 1227 1234 1235 1236 1261 1262 1263 1270 1271 1272 1285 1286 1287 1294 1295 1296 1321 1322 1323 1330 1331 1332 1468 1469 1470 1474 1475 1476 2050 2051 2052
514 515 516 1084 1085 1086 1090 1091 1092 1225 1226 1227 1234 1235 1236 1261 1262 1263 1270 1271 1272 1285 1286 1287 1294 1295 1296 1321 1322 1323 1330 1331 1332 1468 1469 1470 1474 1475 1476 2050 2051 2052
517 518 519 1093 1094 1095 1099 1100 1101 1237 1238 1239 1246 1247 1248 1249 1250 1251 1258 1259 1260 1273 1274 1275 1282 1283 1284 1333 1334 1335 1342 1343 1344 1477 1478 1479 1483 1484 1485 2053 2054 2055
517 518 519 1093 1094 1095 1099 1100 1101 1237 1238 1239 1246 1247 1248 1249 1250 1251 1258 1259 1260 1273 1274 1275 1282 1283 1284 1333 1334 1335 1342 1343 1344 1477 1478 1479 1483 1484 1485 2053 2054 2055
517 518 519 1093 1094 1095 1099 1100 1101 1237 1238 1239 1246 1247 1248 1249 1250 1251 1258 1259 1260 1273 1274 1275 1282 1283 1284 1333 1334 1335 1342 1343 1344 1477 1478 1479 1483 1484 1485 2053 2054 2055
520 521 522 1096 1097 1098 1102 1103 1104 1240 1241 1242 1243 1244 1245 1252 1253 1254 1255 1256 1257 1276 1277 1278 1279 1280 1281 1336 1337 1338 1339 1340 1341 1480 1481 1482 1486 1487 1488 2056 2057 2058
520 521 522 1096 1097 1098 1102 1103 1104 1240 1241 1242 1243 1244 1245 1252 1253 1254 1255 1256 1257 1276 1277 1278 1279 1280 1281 1336 1337 1338 1339 1340 1341 1480 1481 1482 1486 1487 1488 2056 2057 2058
520 521 522 1096 1097 1098 1102 1103 1104 1240 1241 1242 1243 1244 1245 1252 1253 1254 1255 1256 1257 1276 1277 1278 1279 1280 1281 1336 1337 1338 1339 1340 1341 1480 1481 1482 1486 1487 1488 2056 2057 2058
523 524 525 1093 1094 1095 1099 1100 1101 1240 1241 1242 1243 1244 1245 1252 1253 1254 1255 1256 1257 1276 1277 1278 1279 1280 1281 1336 1337 1338 1339 1340 1341 1477 1478 1479 1483 1484 1485 2059 2060 2061
523 524 525 1093 1094 1095 1099 1100 1101 1240 1241 1242 1243 1244 1245 1252 1253 1254 1255 1256 1257 1276 1277 1278 1279 1280 1281 1336 1337 1338 1339 1340 1341 1477 1478 1479 1483 1484 1485 2059 2060 2061
523 524 525 1093 1094 1095 1099 1100 1101 1240 1241 1242 1243 1244 1245 1252 1253 1254 1255 1256 1257 1276 1277 1278 1279 1280 1281 1336 1337 1338 1339 1340 1341 1477 1478 1479 1483 1484 1485 2059 2060 2061
526 527 528 1096 1097 1098 1102 1103 1104 1237 1238 1239 1246 1247 1248 1249 1250 1251 1258 1259 1260 1273 1274 1275 1282 1283 1284 1333 1334 1335 1342 1343 1344 1480 1481 1482 1486 1487 1488 2062 2063 2064
526 527 528 1096 1097 1098 1102 1103 1104 1237 1238 1239 1246 1247 1248 1249 1250 1251 1258 1259 1260 1273 1274 1275 1282 1283 1284 1333 1334 1335 1342 1343 1344 1480 1481 1482 1486 1487 1488 2062 2063 2064
526 527 528 1096 1097 1098 1102 1103 1104 1237 1238 1239 1246 1247 1248 1249 1250 1251 1258 1259 1260 1273 1274 1275 1282 1283 1284 1333 1334 1335 1342 1343 1344 1480 1481 1482 1486 1487 1488 2062 2063 2064
529 530 531 1105 1106 1107 1111 1112 1113 1153 1154 1155 1162 1163 1164 1249 1250 1251 1258 1259 1260 1309 1310 1311 1318 1319 1320 1333 1334 1335 1342 1343 1344 1489 1490 1491 1495 1496 1497 2065 2066 2067
529 530 531 1105 1106 1107 1111 1112 1113 1153 1154 1155 1162 1163 1164 1249 1250 1251 1258 1259 1260 1309 1310 1311 1318 1319 1320 1333 1334 1335 1342 1343 1344 1489 1490 1491 1495 1496 1497 2065 2066 2067
529 530 531 1105 1106 1107 1111 1112 1113 1153 1154 1155 1162 1163 1164 1249 1250 1251 1258 1259 1260 1309 1310 1311 1318 1319 1320 1333 1334 1335 1342 1343 1344 1489 1490 1491 1495 1496 1497 2065 2066 2067
532 533 534 1108 1109 1110 1114 1115 1116 1156 1157 1158 1159 1160 1161 1252 1253 1254 1255 1256 1257 1312 1313 1314 1315 1316 1317 1336 1337 1338 1339 1340 1341 1492 1493 1494 1498 1499 1500 2068 2069 2070
532 533 534 1108 1109 1110 1114 1115 1116 1156 1157 1158 1159 1160 1161 1252 1253 1254 1255 1256 1257 1312 1313 1314 1315 1316 1317 1336 1337 1338 1339 1340 1341 1492 1493 1494 1498 1499 1500 2068 2069 2070
532 533 534 1108 1109 1110 1114 1115 1116 1156 1157 1158 1159 1160 1161 1252 1253 1254 1255 1256 1257 1312 1313 1314 1315 1316 1317 1336 1337 1338 1339 1340 1341 1492 1493 1494 1498 1499 1500 2068 2069 2070
535 536 537 1105 1106 1107 1111 1112 1113 1156 1157 1158 1159 1160 1161 1252 1253 1254 1255 1256 1257 1312 1313 1314 1315 1316 1317 1336 1337 1338 1339 1340 1341 1489 1490 1491 1495 1496 1497 2071 2072 2073
535 536 537 1105 1106 1107 1111 1112 1113 1156 1157 1158 1159 1160 1161 1252 1253 1254 1255 1256 1257 1312 1313 1314 1315 1316 1317 1336 1337 1338 1339 1340 1341 1489 1490 1491 1495 1496 1497 2071 2072 2073
535 536 537 1105 1106 1107 1111 1112 1113 1156 1157 1158 1159 1160 1161 1252 1253 1254 1255 1256 1257 1312 1313 1314 1315 1316 1317 1336 1337 1338 1339 1340 1341 1489 1490 1491 1495 1496 1497 2071 2072 2073
538 539 540 1108 1109 1110 1114 1115 1116 1153 1154 1155 1162 1163 1164 1249 1250 1251 1258 1259 1260 1309 1310 1311 1318 1319 1320 1333 1334 1335 1342 1343 1344 1492 1493 1494 1498 1499 1500 2074 2075 2076
538 539 540 1108 1109 1110 1114 1115 1116 1153 1154 1155 1162 1163 1164 1249 1250 1251 1258 1259 1260 1309 1310 1311 1318 1319 1320 1333 1334 1335 1342 1343 1344 1492 1493 1494 1498 1499 1500 2074 2075 2076
538 539 540 1108 1109 1110 1114 1115 1116 1153 1154 1155 1162 1163 1164 1249 1250 1251 1258 1259 1260 1309 1310 1311 1318 1319 1320 1333 1334 1335 1342 1343 1344 1492 1493 1494 1498 1499 1500 2074 2075 2076
541 542 543 1117 1118 1119 1123 1124 1125 1165 1166 1167 1174 1175 1176 1261 1262 1263 1270 1271 1272 1297 1298 1299 1306 1307 1308 1321 1322 1323 1330 1331 1332 1501 1502 1503 1507 1508 1509 2077 2078 2079
541 542 543 1117 1118 1119 1123 1124 1125 1165 1166 1167 1174 1175 1176 1261 1262 1263 1270 1271 1272 1297 1298 1299 1306 1307 1308 1321 1322 1323 1330 1331 1332 1501 1502 1503 1507 1508 1509 2077 2078 2079
541 542 543 1117 1118 1119 1123 1124 1125 1165 1166 1167 1174 1175 1176 1261 1262 1263 1270 1271 1272 1297 1298 1299 1306 1307 1308 1321 1322 1323 1330 1331 1332 1501 1502 1503 1507 1508 1509 2077 2078 2079
544 545 546 1120 1121 1122 1126 1127 1128 1168 1169 1170 1171 1172 1173 1264 1265 1266 1267 1268 1269 1300 1301 1302 1303 1304 1305 1324 1325 1326 1327 1328 1329 1504 1505 1506 1510 1511 1512 2080 2081 2082
544 545 546 1120 1121 1122 1126 1127 1128 1168 1169 1170 1171 1172 1173 1264 1265 1266 1267 1268 1269 1300 1301 1302 1303 1304 1305 1324 1325 1326 1327 1328 1329 1504 1505 1506 1510 1511 1512 2080 2081 2082
544 545 546 1120 1121 1122 1126 1127 1128 1168 1169 1170 1171 1172 1173 1264 1265 1266 1267 1268 1269 1300 1301 1302 1303 1304 1305 1324 1325 1326 1327 1328 1329 1504 1505 1506 1510 1511 1512 2080 2081 2082
547 548 549 1117 1118 1119 1123 1124 1125 1168 1169 1170 1171 1172 1173 1264 1265 1266 1267 1268 1269 1300 1301 1302 1303 1304 1305 1324 1325 1326 1327 1328 1329 1501 1502 1503 1507 1508 1509 2083 2084 2085
547 548 549 1117 1118 1119 1123 1124 1125 1168 1169 1170 1171 1172 1173 1264 1265 1266 1267 1268 1269 1300 1301 1302 1303 1304 1305 1324 1325 1326 1327 1328 1329 1501 1502 1503 1507 1508 1509 2083 2084 2085
547 548 549 1117 1118 1119 1123 1124 1125 1168 1169 1170 1171 1172 1173 1264 1265 1266 1267 1268 1269 1300 1301 1302 1303 1304 1305 1324 1325 1326 1327 1328 1329 1501 1502 1503 1507 1508 1509 2083 2084 2085
550 551 552 1120 1121 1122 1126 1127 1128 1165 1166 1167 1174 1175 1176 1261 1262 1263 1270 1271 1272 1297 1298 1299 1306 1307 1308 1321 1322 1323 1330 1331 1332 1504 1505 1506 1510 1511 1512 2086 2087 2088
550 551 552 1120 1121 1122 1126 1127 1128 1165 1166 1167 1174 1175 1176 1261 1262 1263 1270 1271 1272 1297 1298 1299 1306 1307 1308 1321 1322 1323 1330 1331 1332 1504 1505 1506 1510 1511 1512 2086 2087 2088
550 551 552 1120 1121 1122 1126 1127 1128 1165 1166 1167 1174 1175 1176 1261 1262 1263 1270 1271 1272 1297 1298 1299 1306 1307 1308 1321 1322 1323 1330 1331 1332 1504 1505 1506 1510 1511 1512 2086 2087 2088
553 554 555 1129 1130 1131 1135 1136 1137 1177 1178 1179 1186 1187 1188 1273 1274 1275 1282 1283 1284 1309 1310 1311 1318 1319 1320 1333 1334 1335 1342 1343 1344 1513 1514 1515 1519 1520 1521 2089 2090 2091
553 554 555 1129 1130 1131 1135 1136 1137 1177 1178 1179 1186 1187 1188 1273 1274 1275 1282 1283 1284 1309 1310 1311 1318 1319 1320 1333 1334 1335 1342 1343 1344 1513 1514 1515 1519 1520 1521 2089 2090 2091
553 554 555 1129 1130 1131 1135 1136 1137 1177 1178 1179 1186 1187 1188 1273 1274 1275 1282 1283 1284 1309 1310 1311 1318 1319 1320 1333 1334 1335 1342 1343 1344 1513 1514 1515 1519 1520 1521 2089 2090 2091
556 557 558 1132 1133 1134 1138 1139 1140 1180 1181 1182 1183 1184 1185 1276 1277 1278 1279 1280 1281 1312 1313 1314 1315 1316 1317 1336 1337 1338 1339 1340 1341 1516 1517 1518 1522 1523 1524 2092 2093 2094
556 557 558 1132 1133 1134 1138 1139 1140 1180 1181 1182 1183 1184 1185 1276 1277 1278 1279 1280 1281 1312 1313 1314 1315 1316 1317 1336 1337 1338 1339 1340 1341 1516 1517 1518 1522 1523 1524 2092 2093 2094
556 557 558 1132 1133 1134 1138 1139 1140 1180 1181 1182 1183 1184 1185 1276 1277 1278 1279 1280 1281 1312 1313 1314 1315 1316 1317 1336 1337 1338 1339 1340 1341 1516 1517 1518 1522 1523 1524 2092 2093 2094
559 560 561 1129 1130 1131 1135 1136 1137 1180 1181 1182 1183 1184 1185 1276 1277 1278 1279 1280 1281 1312 1313 1314 1315 1316 1317 1336 1337 1338 1339 1340 1341 1513 1514 1515 1519 1520 1521 2095 2096 2097
559 560 561 1129 1130 1131 1135 1136 1137 1180 1181 1182 1183 1184 1185 1276 1277 1278 1279 1280 1281 1312 1313 1314 1315 1316 1317 1336 1337 1338 1339 1340 1341 1513 1514 1515 1519 1520 1521 2095 2096 2097
559 560 561 1129 1130 1131 1135 1136 1137 1180 1181 1182 1183 1184 1185 1276 1277 1278 1279 1280 1281 1312 1313 1314 1315 1316 1317 1336 1337 1338 1339 1340 1341 1513 1514 1515 1519 1520 1521 2095 2096 2097
562 563 564 1132 1133 1134 1138 1139 1140 1177 1178 1179 1186 1187 1188 1273 1274 1275 1282 1283 1284 1309 1310 1311 1318 1319 1320 1333 1334 1335 1342 1343 1344 1516 1517 1518 1522 1523 1524 2098 2099 2100
562 563 564 1132 1133 1134 1138 1139 1140 1177 1178 1179 1186 1187 1188 1273 1274 1275 1282 1283 1284 1309 1310 1311 1318 1319 1320 1333 1334 1335 1342 1343 1344 1516 1517 1518 1522 1523 1524 2098 2099 2100
562 563 564 1132 1133 1134 1138 1139 1140 1177 1178 1179 1186 1187 1188 1273 1274 1275 1282 1283 1284 1309 1310 1311 1318 1319 1320 1333 1334 1335 1342 1343 1344 1516 1517 1518 1522 1523 1524 2098 2099 2100
565 566 567 1141 1142 1143 1147 1148 1149 1189 1190 1191 1198 1199 1200 1285 1286 1287 1294 1295 1296 1297 1298 1299 1306 1307 1308 1321 1322 1323 1330 1331 1332 1525 1526 1527 1531 1532 1533 2101 2102 2103
565 566 567 1141 1142 1143 1147 1148 1149 1189 1190 1191 1198 1199 1200 1285 1286 1287 1294 1295 1296 1297 1298 1299 1306 1307 1308 1321 1322 1323 1330 1331 1332 1525 1526 1527 1531 1532 1533 2101 2102 2103
565 566 567 1141 1142 1143 1147 1148 1149 1189 1190 1191 1198 1199 1200 1285 1286 1287 1294 1295 1296 1297 1298 1299 1306 1307 1308 1321 1322 1323 1330 1331 1332 1525 1526 1527 1531 1532 1533 2101 2102 2103
568 569 570 1144 1145 1146 1150 1151 1152 1192 1193 1194 1195 1196 1197 1288 1289 1290 1291 1292 1293 1300 1301 1302 1303 1304 1305 1324 1325 1326 1327 1328 1329 1528 1529 1530 1534 1535 1536 2104 2105 2106
568 569 570 1144 1145 1146 1150 1151 1152 1192 1193 1194 1195 1196 1197 1288 1289 1290 1291 1292 1293 1300 1301 1302 1303 1304 1305 1324 1325 1326 1327 1328 1329 1528 1529 1530 1534 1535 1536 2104 2105 2106
568 569 570 1144 1145 1146 1150 1151 1152 1192 1193 1194 1195 1196 1197 1288 1289 1290 1291 1292 1293 1300 1301 1302 1303 1304 1305 1324 1325 1326 1327 1328 1329 1528 1529 1530 1534 1535 1536 2104 2105 2106
571 572 573 1141 1142 1143 1147 1148 1149 1192 1193 1194 1195 1196 1197 1288 1289 1290 1291 1292 1293 1300 1301 1302 1303 1304 1305 1324 1325 1326 1327 1328 1329 1525 1526 1527 1531 1532 1533 2107 2108 2109
571 572 573 1141 1142 1143 1147 1148 1149 1192 1193 1194 1195 1196 1197 1288 1289 1290 1291 1292 1293 1300 1301 1302 1303 1304 1305 1324 1325 1326 1327 1328 1329 1525 1526 1527 1531 1532 1533 2107 2108 2109
571 572 573 1141 1142 1143 1147 1148 1149 1192 1193 1194 1195 1196 1197 1288 1289 1290 1291 1292 1293 1300 1301 1302 1303 1304 1305 1324 1325 1326 1327 1328 1329 1525 1526 1527 1531 1532 1533 2107 2108 2109
574 575 576 1144 1145 1146 1150 1151 1152 1189 1190 1191 1198 1199 1200 1285 1286 1287 1294 1295 1296 1297 1298 1299 1306 1307 1308 1321 1322 1323 1330 1331 1332 1528 1529 1530 1534 1535 1536 2110 2111 2112
574 575 576 1144 1145 1146 1150 1151 1152 1189 1190 1191 1198 1199 1200 1285 1286 1287 1294 1295 1296 1297 1298 1299 1306 1307 1308 1321 1322 1323 1330 1331 1332 1528 1529 1530 1534 1535 1536 2110 2111 2112
574 575 576 1144 1145 1146 1150 1151 1152 1189 1190 1191 1198 1199 1200 1285 1286 1287 1294 1295 1296 1297 1298 1299 1306 1307 1308 1321 1322 1323 1330 1331 1332 1528 1529 1530 1534 1535 1536 2110 2111 2112
577 578 579 769 770 771 775 776 777 1153 1154 1155 1159 1160 1161 1357 1358 1359 1366 1367 1368 1381 1382 1383 1390 1391 1392 1393 1394 1395 1402 1403 1404 1489 1490 1491 1498 1499 1500 2113 2114 2115
577 578 579 769 770 771 775 776 777 1153 1154 1155 1159 1160 1161 1357 1358 1359 1366 1367 1368 1381 1382 1383 1390 1391 1392 1393 1394 1395 1402 1403 1404 1489 1490 1491 1498 1499 1500 2113 2114 2115
577 578 579 769 770 771 775 776 777 1153 1154 1155 1159 1160 1161 1357 1358 1359 1366 1367 1368 1381 1382 1383 1390 1391 1392 1393 1394 1395 1402 1403 1404 1489 1490 1491 1498 1499 1500 2113 2114 2115
580 581 582 772 773 774 778 779 780 1156 1157 1158 1162 1163 1164 1360 1361 1362 1363 1364 1365 1384 1385 1386 1387 1388 1389 1396 1397 1398 1399 1400 1401 1492 1493 1494 1495 1496 1497 2116 2117 2118
580 581 582 772 773 774 778 779 780 1156 1157 1158 1162 1163 1164 1360 1361 1362 1363 1364 1365 1384 1385 1386 1387 1388 1389 1396 1397 1398 1399 1400 1401 1492 1493 1494 1495 1496 1497 2116 2117 2118
580 581 582 772 773 774 778 779 780 1156 1157 1158 1162 1163 1164 1360 1361 1362 1363 1364 1365 1384 1385 1386 1387 1388 1389 1396 1397 1398 1399 1400 1401 1492 1493 1494 1495 1496 1497 2116 2117 2118
583 584 585 769 770 771 775 776 777 1153 1154 1155 1159 1160 1161 1360 1361 1362 1363 1364 1365 1384 1385 1386 1387 1388 1389 1396 1397 1398 1399 1400 1401 1492 1493 1494 1495 1496 1497 2119 2120 2121
583 584 585 769 770 771 775 776 777 1153 1154 1155 1159 1160 1161 1360 1361 1362 1363 1364 1365 1384 1385 1386 1387 1388 1389 1396 1397 1398 1399 1400 1401 1492 1493 1494 1495 1496 1497 2119 2120 2121
583 584 585 769 770 771 775 776 777 1153 1154 1155 1159 1160 1161 1360 1361 1362 1363 1364 1365 1384 1385 1386 1387 1388 1389 1396 1397 1398 1399 1400 1401 1492 1493 1494 1495 1496 1497 2119 2120 2121
586 587 588 772 773 774 778 779 780 1156 1157 1158 1162 1163 1164 1357 1358 1359 1366 1367 1368 1381 1382 1383 1390 1391 1392 1393 1394 1395 1402 1403 1404 1489 1490 1491 1498 1499 1500 2122 2123 2124
586 587 588 772 773 774 778 779 780 1156 1157 1158 1162 1163 1164 1357 1358 1359 1366 1367 1368 1381 1382 1383 1390 1391 1392 1393 1394 1395 1402 1403 1404 1489 1490 1491 1498 1499 1500 2122 2123 2124
586 587 588 772 773 774 778 779 780 1156 1157 1158 1162 1163 1164 1357 1358 1359 1366 1367 1368 1381 1382 1383 1390 1391 1392 1393 1394 1395 1402 1403 1404 1489 1490 1491 1498 1499 1500 2122 2123 2124
589 590 591 781 782 783 787 788 789 1165 1166 1167 1171 1172 1173 1345 1346 1347 1354 1355 1356 1369 1370 1371 1378 1379 1380 1405 1406 1407 1414 1415 1416 1501 1502 1503 1510 1511 1512 2125 2126 2127
589 590 591 781 782 783 787 788 789 1165 1166 1167 1171 1172 1173 1345 1346 1347 1354 1355 1356 1369 1370 1371 1378 1379 1380 1405 1406 1407 1414 1415 1416 1501 1502 1503 1510 1511 1512 2125 2126 2127
589 590 591 781 782 783 787 788 789 1165 1166 1167 1171 1172 1173 1345 1346 1347 1354 1355 1356 1369 1370 1371 1378 1379 1380 1405 1406 1407 1414 1415 1416 1501 1502 1503 1510 1511 1512 2125 2126 2127
592 593 594 784 785 786 790 791 792 1168 1169 1170 1174 1175 1176 1348 1349 1350 1351 1352 1353 1372 1373 1374 1375 1376 1377 1408 1409 1410 1411 1412 1413 1504 1505 1506 1507 1508 1509 2128 2129 2130
592 593 594 784 785 786 790 791 792 1168 1169 1170 1174 1175 1176 1348 1349 1350 1351 1352 1353 1372 1373 1374 1375 1376 1377 1408 1409 1410 1411 1412 1413 1504 1505 1506 1507 1508 1509 2128 2129 2130
592 593 594 784 785 786 790 791 792 1168 1169 1170 1174 1175 1176 1348 1349 1350 1351 1352 1353 1372 1373 1374 1375 1376 1377 1408 1409 1410 1411 1412 1413 1504 1505 1506 1507 1508 1509 2128 2129 2130
595 596 597 781 782 783 787 788 789 1165 1166 1167 1171 1172 1173 1348 1349 1350 1351 1352 1353 1372 1373 1374 1375 1376 1377 1408 1409 1410 1411 1412 1413 1504 1505 1506 1507 1508 1509 2131 2132 2133
595 596 597 781 782 783 787 788 789 1165 1166 1167 1171 1172 1173 1348 1349 1350 1351 1352 1353 1372 1373 1374 1375 1376 1377 1408 1409 1410 1411 1412 1413 1504 1505 1506 1507 1508 1509 2131 2132 2133
595 596 597 781 782 783 787 788 789 1165 1166 1167 1171 1172 1173 1348 1349 1350 1351 1352 1353 1372 1373 1374 1375 1376 1377 1408 1409 1410 1411 1412 1413 1504 1505 1506 1507 1508 1509 2131 2132 2133
598 599 600 784 785 786 790 791 792 1168 1169 1170 1174 1175 1176 1345 1346 1347 1354 1355 1356 1369 1370 1371 1378 1379 1380 1405 1406 1407 1414 1415 1416 1501 1502 1503 1510 1511 1512 2134 2135 2136
598 599 600 784 785 786 790 791 792 1168 1169 1170 1174 1175 1176 1345 1346 1347 1354 1355 1356 1369 1370 1371 1378 1379 1380 1405 1406 1407 1414 1415 1416 1501 1502 1503 1510 1511 1512 2134 2135 2136
598 599 600 784 785 786 790 791 792 1168 1169 1170 1174 1175 1176 1345 1346 1347 1354 1355 1356 1369 1370 1371 1378 1379 1380 1405 1406 1407 1414 1415 1416 1501 1502 1503 1510 1511 1512 2134 2135 2136
601 602 603 793 794 795 799 800 801 1177 1178 1179 1183 1184 1185 1357 1358 1359 1366 1367 1368 1381 1382 1383 1390 1391 1392 1417 1418 1419 1426 1427 1428 1513 1514 1515 1522 1523 1524 2137 2138 2139
601 602 603 793 794 795 799 800 801 1177 1178 1179 1183 1184 1185 1357 1358 1359 1366 1367 1368 1381 1382 1383 1390 1391 1392 1417 1418 1419 1426 1427 1428 1513 1514 1515 1522 1523 1524 2137 2138 2139
601 602 603 793 794 795 799 800 801 1177 1178 1179 1183 1184 1185 1357 1358 1359 1366 1367 1368 1381 1382 1383 1390 1391 1392 1417 1418 1419 1426 1427 1428 1513 1514 1515 1522 1523 1524 2137 2138 2139
604 605 606 796 797 798 802 803 804 1180 1181 1182 1186 1187 1188 1360 1361 1362 1363 1364 1365 1384 1385 1386 1387 1388 1389 1420 1421 1422 1423 1424 1425 1516 1517 1518 1519 1520 1521 2140 2141 2142
604 605 606 796 797 798 802 803 804 1180 1181 1182 1186 1187 1188 1360 1361 1362 1363 1364 1365 1384 1385 1386 1387 1388 1389 1420 1421 1422 1423 1424 1425 1516 1517 1518 1519 1520 1521 2140 2141 2142
604 605 606 796 797 798 802 803 804 1180 1181 1182 1186 1187 1188 1360 1361 1362 1363 1364 1365 1384 1385 1386 1387 1388 1389 1420 1421 1422 1423 1424 1425 1516 1517 1518 1519 1520 1521 2140 2141 2142
607 608 609 793 794 795 799 800 801 1177 1178 1179 1183 1184 1185 1360 1361 1362 1363 1364 1365 1384 1385 1386 1387 1388 1389 1420 1421 1422 1423 1424 1425 1516 1517 1518 1519 1520 1521 2143 2144 2145
607 608 609 793 794 795 799 800 801 1177 1178 1179 1183 1184 1185 1360 1361 1362 1363 1364 1365 1384 1385 1386 1387 1388 1389 1420 1421 1422 1423 1424 1425 1516 1517 1518 1519 1520 1521 2143 2144 2145
607 608 609 793 794 795 799 800 801 1177 1178 1179 1183 1184 1185 1360 1361 1362 1363 1364 1365 1384 1385 1386 1387 1388 1389 1420 1421 1422 1423 1424 1425 1516 1517 1518 1519 1520 1521 2143 2144 2145
610 611 612 796 797 798 802 803 804 1180 1181 1182 1186 1187 1188 1357 1358 1359 1366 1367 1368 1381 1382 1383 1390 1391 1392 1417 1418 1419 1426 1427 1428 1513 1514 1515 1522 1523 1524 2146 2147 2148
610 611 612 796 797 798 802 803 804 1180 1181 1182 1186 1187 1188 1357 1358 1359 1366 1367 1368 1381 1382 1383 1390 1391 1392 1417 1418 1419 1426 1427 1428 1513 1514 1515 1522 1523 1524 2146 2147 2148
610 611 612 796 797 798 802 803 804 1180 1181 1182 1186 1187 1188 1357 1358 1359 1366 1367 1368 1381 1382 1383 1390 1391 1392 1417 1418 1419 1426 1427 1428 1513 1514 1515 1522 1523 1524 2146 2147 2148
613 614 615 805 806 807 811 812 813 1189 1190 1191 1195 1196 1197 1345 1346 1347 1354 1355 1356 1369 1370 1371 1378 1379 1380 1429 1430 1431 1438 1439 1440 1525 1526 1527 1534 1535 1536 2149 2150 2151
613 614 615 805 806 807 811 812 813 1189 1190 1191 1195 1196 1197 1345 1346 1347 1354 1355 1356 1369 1370 1371 1378 1379 1380 1429 1430 1431 1438 1439 1440 1525 1526 1527 1534 1535 1536 2149 2150 2151
613 614 615 805 806 807 811 812 813 1189 1190 1191 1195 1196 1197 1345 1346 1347 1354 1355 1356 1369 1370 1371 1378 1379 1380 1429 1430 1431 1438 1439 1440 1525 1526 1527 1534 1535 1536 2149 2150 2151
616 617 618 808 809 810 814 815 816 1192 1193 1194 1198 1199 1200 1348 1349 1350 1351 1352 1353 1372 1373 1374 1375 1376 1377 1432 1433 1434 1435 1436 1437 1528 1529 1530 1531 1532 1533 2152 2153 2154
616 617 618 808 809 810 814 815 816 1192 1193 1194 1198 1199 1200 1348 1349 1350 1351 1352 1353 1372 1373 1374 1375 1376 1377 1432 1433 1434 1435 1436 1437 1528 1529 1530 1531 1532 1533 2152 2153 2154
616 617 618 808 809 810 814 815 816 1192 1193 1194 1198 1199 1200 1348 1349 1350 1351 1352 1353 1372 1373 1374 1375 1376 1377 1432 1433 1434 1435 1436 1437 1528 1529 1530 1531 1532 1533 2152 2153 2154
619 620 621 805 806 807 811 812 813 1189 1190 1191 1195 1196 1197 1348 1349 1350 1351 1352 1353 1372 1373 1374 1375 1376 1377 1432 1433 1434 1435 1436 1437 1528 1529 1530 1531 1532 1533 2155 2156 2157
619 620 621 805 806 807 811 812 813 1189 1190 1191 1195 1196 1197 1348 1349 1350 1351 1352 1353 1372 1373 1374 1375 1376 1377 1432 1433 1434 1435 1436 1437 1528 1529 1530 1531 1532 1533 2155 2156 2157
619 620 621 805 806 807 811 812 813 1189 1190 1191 1195 1196 1197 1348 1349 1350 1351 1352 1353 1372 1373 1374 1375 1376 1377 1432 1433 1434 1435 1436 1437 1528 1529 1530 1531 1532 1533 2155 2156 2157
622 623 624 808 809 810 814 815 816 1192 1193 1194 1198 1199 1200 1345 1346 1347 1354 1355 1356 1369 1370 1371 1378 1379 1380 1429 1430 1431 1438 1439 1440 1525 1526 1527 1534 1535 1536 2158 2159 2160
622 623 624 808 809 810 814 815 816 1192 1193 1194 1198 1199 1200 1345 1346 1347 1354 1355 1356 1369 1370 1371 1378 1379 1380 1429 1430 1431 1438 1439 1440 1525 1526 1527 1534 1535 1536 2158 2159 2160
622 623 624 808 809 810 814 815 816 1192 1193 1194 1198 1199 1200 1345 1346 1347 1354 1355 1356 1369 1370 1371 1378 1379 1380 1429 1430 1431 1438 1439 1440 1525 1526 1527 1534 1535 1536 2158 2159 2160
625 626 627 817 818 819 823 824 825 1201 1202 1203 1207 1208 1209 1345 1346 1347 1354 1355 1356 1405 1406 1407 1414 1415 1416 1429 1430 1431 1438 1439 1440 1441 1442 1443 1450 1451 1452 2161 2162 2163
625 626 627 817 818 819 823 824 825 1201 1202 1203 1207 1208 1209 1345 1346 1347 1354 1355 1356 1405 1406 1407 1414 1415 1416 1429 1430 1431 1438 1439 1440 1441 1442 1443 1450 1451 1452 2161 2162 2163
625 626 627 817 818 819 823 824 825 1201 1202 1203 1207 1208 1209 1345 1346 1347 1354 1355 1356 1405 1406 1407 1414 1415 1416 1429 1430 1431 1438 1439 1440 1441 1442 1443 1450 1451 1452 2161 2162 2163
628 629 630 820 821 822 826 827 828 1204 1205 1206 1210 1211 1212 1348 1349 1350 1351 1352 1353 1408 1409 1410 1411 1412 1413 1432 1433 1434 1435 1436 1437 1444 1445 1446 1447 1448 1449 2164 2165 2166
628 629 630 820 821 822 826 827 828 1204 1205 1206 1210 1211 1212 1348 1349 1350 1351 1352 1353 1408 1409 1410 1411 1412 1413 1432 1433 1434 1435 1436 1437 1444 1445 1446 1447 1448 1449 2164 2165 2166
628 629 630 820 821 822 826 827 828 1204 1205 1206 1210 1211 1212 1348 1349 1350 1351 1352 1353 1408 1409 1410 1411 1412 1413 1432 1433 1434 1435 1436 1437 1444 1445 1446 1447 1448 1449 2164 2165 2166
631 632 633 817 818 819 823 824 825 1201 1202 1203 1207 1208 1209 1348 1349 1350 1351 1352 1353 1408 1409 1410 1411 1412 1413 1432 1433 1434 1435 1436 1437 1444 1445 1446 1447 1448 1449 2167 2168 2169
631 632 633 817 818 819 823 824 825 1201 1202 1203 1207 1208 1209 1348 1349 1350 1351 1352 1353 1408 1409 1410 1411 1412 1413 1432 1433 1434 1435 1436 1437 1444 1445 1446 1447 1448 1449 2167 2168 2169
631 632 633 817 818 819 823 824 825 1201 1202 1203 1207 1208 1209 1348 1349 1350 1351 1352 1353 1408 1409 1410 1411 1412 1413 1432 1433 1434 1435 1436 1437 1444 1445 1446 1447 1448 1449 2167 2168 2169
634 635 636 820 821 822 826 827 828 1204 1205 1206 1210 1211 1212 1345 1346 1347 1354 1355 1356 1405 1406 1407 1414 1415 1416 1429 1430 1431 1438 1439 1440 1441 1442 1443 1450 1451 1452 2170 2171 2172
634 635 636 820 821 822 826 827 828 1204 1205 1206 1210 1211 1212 1345 1346 1347 1354 1355 1356 1405 1406 1407 1414 1415 1416 1429 1430 1431 1438 1439 1440 1441 1442 1443 1450 1451 1452 2170 2171 2172
634 635 636 820 821 822 826 827 828 1204 1205 1206 1210 1211 1212 1345 1346 1347 1354 1355 1356 1405 1406 1407 1414 1415 1416 1429 1430 1431 1438 1439 1440 1441 1442 1443 1450 1451 1452 2170 2171 2172
637 638 639 829 830 831 835 836 837 1213 1214 1215 1219 1220 1221 1357 1358 1359 1366 1367 1368 1393 1394 1395 1402 1403 1404 1417 1418 1419 1426 1427 1428 1453 1454 1455 1462 1463 1464 2173 2174 2175
637 638 639 829 830 831 835 836 837 1213 1214 1215 1219 1220 1221 1357 1358 1359 1366 1367 1368 1393 1394 1395 1402 1403 1404 1417 1418 1419 1426 1427 1428 1453 1454 1455 1462 1463 1464 2173 2174 2175
637 638 639 829 830 831 835 836 837 1213 1214 1215 1219 1220 1221 1357 1358 1359 1366 1367 1368 1393 1394 1395 1402 1403 1404 1417 1418 1419 1426 1427 1428 1453 1454 1455 1462 1463 1464 2173 2174 2175
640 641 642 832 833 834 838 839 840 1216 1217 1218 1222 1223 1224 1360 1361 1362 1363 1364 1365 1396 1397 1398 1399 1400 1401 1420 1421 1422 1423 1424 1425 1456 1457 1458 1459 1460 1461 2176 2177 2178
640 641 642 832 833 834 838 839 840 1216 1217 1218 1222 1223 1224 1360 1361 1362 1363 1364 1365 1396 1397 1398 1399 1400 1401 1420 1421 1422 1423 1424 1425 1456 1457 1458 1459 1460 1461 2176 2177 2178
640 641 642 832 833 834 838 839 840 1216 1217 1218 1222 1223 1224 1360 1361 1362 1363 1364 1365 1396 1397 1398 1399 1400 1401 1420 1421 1422 1423 1424 1425 1456 1457 1458 1459 1460 1461 2176 2177 2178
643 644 645 829 830 831 835 836 837 1213 1214 1215 1219 1220 1221 1360 1361 1362 1363 1364 1365 1396 1397 1398 1399 1400 1401 1420 1421 1422 1423 1424 1425 1456 1457 1458 1459 1460 1461 2179 2180 2181
643 644 645 829 830 831 835 836 837 1213 1214 1215 1219 1220 1221 1360 1361 1362 1363 1364 1365 1396 1397 1398 1399 1400 1401 1420 1421 1422 1423 1424 1425 1456 1457 1458 1459 1460 1461 2179 2180 2181
643 644 645 829 830 831 835 836 837 1213 1214 1215 1219 1220 1221 1360 1361 1362 1363 1364 1365 1396 1397 1398 1399 1400 1401 1420 1421 1422 1423 1424 1425 1456 1457 1458 1459 1460 1461 2179 2180 2181
646 647 648 832 833 834 838 839 840 1216 1217 1218 1222 1223 1224 1357 1358 1359 1366 1367 1368 1393 1394 1395 1402 1403 1404 1417 1418 1419 1426 1427 1428 1453 1454 1455 1462 1463 1464 2182 2183 2184
646 647 648 832 833 834 838 839 840 1216 1217 1218 1222 1223 1224 1357 1358 1359 1366 1367 1368 1393 1394 1395 1402 1403 1404 1417 1418 1419 1426 1427 1428 1453 1454 1455 1462 1463 1464 2182 2183 2184
646 647 648 832 833 834 838 839 840 1216 1217 1218 1222 1223 1224 1357 1358 1359 1366 1367 1368 1393 1394 1395 1402 1403 1404 1417 1418 1419 1426 1427 1428 1453 1454 1455 1462 1463 1464 2182 2183 2184
649 650 651 841 842 843 847 848 849 1225 1226 1227 1231 1232 1233 1369 1370 1371 1378 1379 1380 1405 1406 1407 1414 1415 1416 1429 1430 1431 1438 1439 1440 1465 1466 1467 1474 1475 1476 2185 2186 2187
649 650 651 841 842 843 847 848 849 1225 1226 1227 1231 1232 1233 1369 1370 1371 1378 1379 1380 1405 1406 1407 1414 1415 1416 1429 1430 1431 1438 1439 1440 1465 1466 1467 1474 1475 1476 2185 2186 2187
649 650 651 841 842 843 847 848 849 1225 1226 1227 1231 1232 1233 1369 1370 1371 1378 1379 1380 1405 1406 1407 1414 1415 1416 1429 1430 1431 1438 1439 1440 1465 1466 1467 1474 1475 1476 2185 2186 2187
652 653 654 844 845 846 850 851 852 1228 1229 1230 1234 1235 1236 1372 1373 1374 1375 1376 1377 1408 1409 1410 1411 1412 1413 1432 1433 1434 1435 1436 1437 1468 1469 1470 1471 1472 1473 2188 2189 2190
652 653 654 844 845 846 850 851 852 1228 1229 1230 1234 1235 1236 1372 1373 1374 1375 1376 1377 1408 1409 1410 1411 1412 1413 1432 1433 1434 1435 1436 1437 1468 1469 1470 1471 1472 1473 2188 2189 2190
652 653 654 844 845 846 850 851 852 1228 1229 1230 1234 1235 1236 1372 1373 1374 1375 1376 1377 1408 1409 1410 1411 1412 1413 1432 1433 1434 1435 1436 1437 1468 1469 1470 1471 1472 1473 2188 2189 2190
655 656 657 841 842 843 847 848 849 1225 1226 1227 1231 1232 1233 1372 1373 1374 1375 1376 1377 1408 1409 1410 1411 1412 1413 1432 1433 1434 1435 1436 1437 1468 1469 1470 1471 1472 1473 2191 2192 2193
655 656 657 841 842 843 847 848 849 1225 1226 1227 1231 1232 1233 1372 1373 1374 1375 1376 1377 1408 1409 1410 1411 1412 1413 1432 1433 1434 1435 1436 1437 1468 1469 1470 1471 1472 1473 2191 2192 2193
655 656 657 841 842 843 847 848 849 1225 1226 1227 1231 1232 1233 1372 1373 1374 1375 1376 1377 1408 1409 1410 1411 1412 1413 1432 1433 1434 1435 1436 1437 1468 1469 1470 1471 1472 1473 2191 2192 2193
658 659 660 844 845 846 850 851 852 1228 1229 1230 1234 1235 1236 1369 1370 1371 1378 1379 1380 1405 1406 1407 1414 1415 1416 1429 1430 1431 1438 1439 1440 1465 1466 1467 1474 1475 1476 2194 2195 2196
658 659 660 844 845 846 850 851 852 1228 1229 1230 1234 1235 1236 1369 1370 1371 1378 1379 1380 1405 1406 1407 1414 1415 1416 1429 1430 1431 1438 1439 1440 1465 1466 1467 1474 1475 1476 2194 2195 2196
658 659 660 844 845 846 850 851 852 1228 1229 1230 1234 1235 1236 1369 1370 1371 1378 1379 1380 1405 1406 1407 1414 1415 1416 1429 1430 1431 1438 1439 1440 1465 1466 1467 1474 1475 1476 2194 2195 2196
661 662 663 853 854 855 859 860 861 1237 1238 1239 1243 1244 1245 1381 1382 1383 1390 1391 1392 1393 1394 1395 1402 1403 1404 1417 1418 1419 1426 1427 1428 1477 1478 1479 1486 1487 1488 2197 2198 2199
661 662 663 853 854 855 859 860 861 1237 1238 1239 1243 1244 1245 1381 1382 1383 1390 1391 1392 1393 1394 1395 1402 1403 1404 1417 1418 1419 1426 1427 1428 1477 1478 1479 1486 1487 1488 2197 2198 2199
661 662 663 853 854 855 859 860 861 1237 1238 1239 1243 1244 1245 1381 1382 1383 1390 1391 1392 1393 1394 1395 1402 1403 1404 1417 1418 1419 1426 1427 1428 1477 1478 1479 1486 1487 1488 2197 2198 2199
664 665 666 856 857 858 862 863 864 1240 1241 1242 1246 1247 1248 1384 1385 1386 1387 1388 1389 1396 1397 1398 1399 1400 1401 1420 1421 1422 1423 1424 1425 1480 1481 1482 1483 1484 1485 2200 2201 2202
664 665 666 856 857 858 862 863 864 1240 1241 1242 1246 1247 1248 1384 1385 1386 1387 1388 1389 1396 1397 1398 1399 1400 1401 1420 1421 1422 1423 1424 1425 1480 1481 1482 1483 1484 1485 2200 2201 2202
664 665 666 856 857 858 862 863 864 1240 1241 1242 1246 1247 1248 1384 1385 1386 1387 1388 1389 1396 1397 1398 1399 1400 1401 1420 1421 1422 1423 1424 1425 1480 1481 1482 1483 1484 1485 2200 2201 2202
667 668 669 853 854 855 859 860 861 1237 1238 1239 1243 1244 1245 1384 1385 1386 1387 1388 1389 1396 1397 1398 1399 1400 1401 1420 1421 1422 1423 1424 1425 1480 1481 1482 1483 1484 1485 2203 2204 2205
667 668 669 853 854 855 859 860 861 1237 1238 1239 1243 1244 1245 1384 1385 1386 1387 1388 1389 1396 1397 1398 1399 1400 1401 1420 1421 1422 1423 1424 1425 1480 1481 1482 1483 1484 1485 2203 2204 2205
667 668 669 853 854 855 859 860 861 1237 1238 1239 1243 1244 1245 1384 1385 1386 1387 1388 1389 1396 1397 1398 1399 1400 1401 1420 1421 1422 1423 1424 1425 1480 1481 1482 1483 1484 1485 2203 2204 2205
670 671 672 856 857 858 862 863 864 1240 1241 1242 1246 1247 1248 1381 1382 1383 1390 1391 1392 1393 1394 1395 1402 1403 1404 1417 1418 1419 1426 1427 1428 1477 1478 1479 1486 1487 1488 2206 2207 2208
670 671 672 856 857 858 862 863 864 1240 1241 1242 1246 1247 1248 1381 1382 1383 1390 1391 1392 1393 1394 1395 1402 1403 1404 1417 1418 1419 1426 1427 1428 1477 1478 1479 1486 1487 1488 2206 2207 2208
670 671 672 856 857 858 862 863 864 1240 1241 1242 1246 1247 1248 1381 1382 1383 1390 1391 1392 1393 1394 1395 1402 1403 1404 1417 1418 1419 1426 1427 1428 1477 1478 1479 1486 1487 1488 2206 2207 2208
673 674 675 865 866 867 871 872 873 1249 1250 1251 1255 1256 1257 1393 1394 1395 1402 1403 1404 1453 1454 1455 1462 1463 1464 1477 1478 1479 1486 1487 1488 1489 1490 1491 1498 1499 1500 2209 2210 2211
673 674 675 865 866 867 871 872 873 1249 1250 1251 1255 1256 1257 1393 1394 1395 1402 1403 1404 1453 1454 1455 1462 1463 1464 1477 1478 1479 1486 1487 1488 1489 1490 1491 1498 1499 1500 2209 2210 2211
673 674 675 865 866 867 871 872 873 1249 1250 1251 1255 1256 1257 1393 1394 1395 1402 1403 1404 1453 1454 1455 1462 1463 1464 1477 1478 1479 1486 1487 1488 1489 1490 1491 1498 1499 1500 2209 2210 2211
676 677 678 868 869 870 874 875 876 1252 1253 1254 1258 1259 1260 1396 1397 1398 1399 1400 1401 1456 1457 1458 1459 1460 1461 1480 1481 1482 1483 1484 1485 1492 1493 1494 1495 1496 1497 2212 2213 2214
676 677 678 868 869 870 874 875 876 1252 1253 1254 1258 1259 1260 1396 1397 1398 1399 1400 1401 1456 1457 1458 1459 1460 1461 1480 1481 1482 1483 1484 1485 1492 1493 1494 1495 1496 1497 2212 2213 2214
676 677 678 868 869 870 874 875 876 1252 1253 1254 1258 1259 1260 1396 1397 1398 1399 1400 1401 1456 1457 1458 1459 1460 1461 1480 1481 1482 1483 1484 1485 1492 1493 1494 1495 1496 1497 2212 2213 2214
679 680 681 865 866 867 871 872 873 1249 1250 1251 1255 1256 1257 1396 1397 1398 1399 1400 1401 1456 1457 1458 1459 1460 1461 1480 1481 1482 1483 1484 1485 1492 1493 1494 1495 1496 1497 2215 2216 2217
679 680 681 865 866 867 871 872 873 1249 1250 1251 1255 1256 1257 1396 1397 1398 1399 1400 1401 1456 1457 1458 1459 1460 1461 1480 1481 1482 1483 1484 1485 1492 1493 1494 1495 1496 1497 2215 2216 2217
679 680 681 865 866 867 871 872 873 1249 1250 1251 1255 1256 1257 1396 1397 1398 1399 1400 1401 1456 1457 1458 1459 1460 1461 1480 1481 1482 1483 1484 1485 1492 1493 1494 1495 1496 1497 2215 2216 2217
682 683 684 868 869 870 874 875 876 1252 1253 1254 1258 1259 1260 1393 1394 1395 1402 1403 1404 1453 1454 1455 1462 1463 1464 1477 1478 1479 1486 1487 1488 1489 1490 1491 1498 1499 1500 2218 2219 2220
682 683 684 868 869 870 874 875 876 1252 1253 1254 1258 1259 1260 1393 1394 1395 1402 1403 1404 1453 1454 1455 1462 1463 1464 1477 1478 1479 1486 1487 1488 1489 1490 1491 1498 1499 1500 2218 2219 2220
682 683 684 868 869 870 874 875 876 1252 1253 1254 1258 1259 1260 1393 1394 1395 1402 1403 1404 1453 1454 1455 1462 1463 1464 1477 1478 1479 1486 1487 1488 1489 1490 1491 1498 1499 1500 2218 2219 2220
685 686 687 877 878 879 883 884 885 1261 1262 1263 1267 1268 1269 1405 1406 1407 1414 1415 1416 1441 1442 1443 1450 1451 1452 1465 1466 1467 1474 1475 1476 1501 1502 1503 1510 1511 1512 2221 2222 2223
685 686 687 877 878 879 883 884 885 1261 1262 1263 1267 1268 1269 1405 1406 1407 1414 1415 1416 1441 1442 1443 1450 1451 1452 1465 1466 1467 1474 1475 1476 1501 1502 1503 1510 1511 1512 2221 2222 2223
685 686 687 877 878 879 883 884 885 1261 1262 1263 1267 1268 1269 1405 1406 1407 1414 1415 1416 1441 1442 1443 1450 1451 1452 1465 1466 1467 1474 1475 1476 1501 1502 1503 1510 1511 1512 2221 2222 2223
688 689 690 880 881 882 886 887 888 1264 1265 1266 1270 1271 1272 1408 1409 1410 1411 1412 1413 1444 1445 1446 1447 1448 1449 1468 1469 1470 1471 1472 1473 1504 1505 1506 1507 1508 1509 2224 2225 2226
688 689 690 880 881 882 886 887 888 1264 1265 1266 1270 1271 1272 1408 1409 1410 1411 1412 1413 1444 1445 1446 1447 1448 1449 1468 1469 1470 1471 1472 1473 1504 1505 1506 1507 1508 1509 2224 2225 2226
688 689 690 880 881 882 886 887 888 1264 1265 1266 1270 1271 1272 1408 1409 1410 1411 1412 1413 1444 1445 1446 1447 1448 1449 1468 1469 1470 1471 1472 1473 1504 1505 1506 1507 1508 1509 2224 2225 2226
691 692 693 877 878 879 883 884 885 1261 1262 1263 1267 1268 1269 1408 1409 1410 1411 1412 1413 1444 1445 1446 1447 1448 1449 1468 1469 1470 1471 1472 1473 1504 1505 1506 1507 1508 1509 2227 2228 2229
691 692 693 877 878 879 883 884 885 1261 1262 1263 1267 1268 1269 1408 1409 1410 1411 1412 1413 1444 1445 1446 1447 1448 1449 1468 1469 1470 1471 1472 1473 1504 1505 1506 1507 1508 1509 2227 2228 2229
691 692 693 877 878 879 883 884 885 1261 1262 1263 1267 1268 1269 1408 1409 1410 1411 1412 1413 1444 1445 1446 1447 1448 1449 1468 1469 1470 1471 1472 1473 1504 1505 1506 1507 1508 1509 2227 2228 2229
694 695 696 880 881 882 886 887 888 1264 1265 1266 1270 1271 1272 1405 1406 1407 1414 1415 1416 1441 1442 1443 1450 1451 1452 1465 1466 1467 1474 1475 1476 1501 1502 1503 1510 1511 1512 2230 2231 2232
694 695 696 880 881 882 886 887 888 1264 1265 1266 1270 1271 1272 1405 1406 1407 1414 1415 1416 1441 1442 1443 1450 1451 1452 1465 1466 1467 1474 1475 1476 1501 1502 1503 1510 1511 1512 2230 2231 2232
694 695 696 880 881 882 886 887 888 1264 1265 1266 1270 1271 1272 1405 1406 1407 1414 1415 1416 1441 1442 1443 1450 1451 1452 1465 1466 1467 1474 1475 1476 1501 1502 1503 1510 1511 1512 2230 2231 2232
697 698 699 889 890 891 895 896 897 1273 1274 1275 1279 1280 1281 1417 1418 1419 1426 1427 1428 1453 1454 1455 1462 1463 1464 1477 1478 1479 1486 1487 1488 1513 1514 1515 1522 1523 1524 2233 2234 2235
697 698 699 889 890 891 895 896 897 1273 1274 1275 1279 1280 1281 1417 1418 1419 1426 1427 1428 1453 1454 1455 1462 1463 1464 1477 1478 1479 1486 1487 1488 1513 1514 1515 1522 1523 1524 2233 2234 2235
697 698 699 889 890 891 895 896 897 1273 1274 1275 1279 1280 1281 1417 1418 1419 1426 1427 1428 1453 1454 1455 1462 1463 1464 1477 1478 1479 1486 1487 1488 1513 1514 1515 1522 1523 1524 2233 2234 2235
700 701 702 892 893 894 898 899 900 1276 1277 1278 1282 1283 1284 1420 1421 1422 1423 1424 1425 1456 1457 1458 1459 1460 1461 1480 1481 1482 1483 1484 1485 1516 1517 1518 1519 1520 1521 2236 2237 2238
700 701 702 892 893 894 898 899 900 1276 1277 1278 1282 1283 1284 1420 1421 1422 1423 1424 1425 1456 1457 1458 1459 1460 1461 1480 1481 1482 1483 1484 1485 1516 1517 1518 1519 1520 1521 2236 2237 2238
700 701 702 892 893 894 898 899 900 1276 1277 1278 1282 1283 1284 1420 1421 1422 1423 1424 1425 1456 1457 1458 1459 1460 1461 1480 1481 1482 1483 1484 1485 1516 1517 1518 1519 1520 1521 2236 2237 2238
703 704 705 889 890 891 895 896 897 1273 1274 1275 1279 1280 1281 1420 1421 1422 1423 1424 1425 1456 1457 1458 1459 1460 1461 1480 1481 1482 1483 1484 1485 1516 1517 1518 1519 1520 1521 2239 2240 2241
703 704 705 889 890 891 895 896 897 1273 1274 1275 1279 1280 1281 1420 1421 1422 1423 1424 1425 1456 1457 1458 1459 1460 1461 1480 1481 1482 1483 1484 1485 1516 1517 1518 1519 1520 1521 2239 2240 2241
703 704 705 889 890 891 895 896 897 1273 1274 1275 1279 1280 1281 1420 1421 1422 1423 1424 1425 1456 1457 1458 1459 1460 1461 1480 1481 1482 1483 1484 1485 1516 1517 1518 1519 1520 1521 2239 2240 2241
706 707 708 892 893 894 898 899 900 1276 1277 1278 1282 1283 1284 1417 1418 1419 1426 1427 1428 1453 1454 1455 1462 1463 1464 1477 1478 1479 1486 1487 1488 1513 1514 1515 1522 1523 1524 2242 2243 2244
706 707 708 892 893 894 898 899 900 1276 1277 1278 1282 1283 1284 1417 1418 1419 1426 1427 1428 1453 1454 1455 1462 1463 1464 1477 1478 1479 1486 1487 1488 1513 1514 1515 1522 1523 1524 2242 2243 2244
706 707 708 892 893 894 898 899 900 1276 1277 1278 1282 1283 1284 1417 1418 1419 1426 1427 1428 1453 1454 1455 1462 1463 1464 1477 1478 1479 1486 1487 1488 1513 1514 1515 1522 1523 1524 2242 2243 2244
709 710 711 901 902 903 907 908 909 1285 1286 1287 1291 1292 1293 1429 1430 1431 1438 1439 1440 1441 1442 1443 1450 1451 1452 1465 1466 1467 1474 1475 1476 1525 1526 1527 1534 1535 1536 2245 2246 2247
709 710 711 901 902 903 907 908 909 1285 1286 1287 1291 1292 1293 1429 1430 1431 1438 1439 1440 1441 1442 1443 1450 1451 1452 1465 1466 1467 1474 1475 1476 1525 1526 1527 1534 1535 1536 2245 2246 2247
709 710 711 901 902 903 907 908 909 1285 1286 1287 1291 1292 1293 1429 1430 1431 1438 1439 1440 1441 1442 1443 1450 1451 1452 1465 1466 1467 1474 1475 1476 1525 1526 1527 1534 1535 1536 2245 2246 2247
712 713 714 904 905 906 910 911 912 1288 1289 1290 1294 1295 1296 1432 1433 1434 1435 1436 1437 1444 1445 1446 1447 1448 1449 1468 1469 1470 1471 1472 1473 1528 1529 1530 1531 1532 1533 2248 2249 2250
712 713 714 904 905 906 910 911 912 1288 1289 1290 1294 1295 1296 1432 1433 1434 1435 1436 1437 1444 1445 1446 1447 1448 1449 1468 1469 1470 1471 1472 1473 1528 1529 1530 1531 1532 1533 2248 2249 2250
712 713 714 904 905 906 910 911 912 1288 1289 1290 1294 1295 1296 1432 1433 1434 1435 1436 1437 1444 1445 1446 1447 1448 1449 1468 1469 1470 1471 1472 1473 1528 1529 1530 1531 1532 1533 2248 2249 2250
715 716 717 901 902 903 907 908 909 1285 1286 1287 1291 1292 1293 1432 1433 1434 1435 1436 1437 1444 1445 1446 1447 1448 1449 1468 1469 1470 1471 1472 1473 1528 1529 1530 1531 1532 1533 2251 2252 2253
715 716 717 901 902 903 907 908 909 1285 1286 1287 1291 1292 1293 1432 1433 1434 1435 1436 1437 1444 1445 1446 1447 1448 1449 1468 1469 1470 1471 1472 1473 1528 1529 1530 1531 1532 1533 2251 2252 2253
715 716 717 901 902 903 907 908 909 1285 1286 1287 1291 1292 1293 1432 1433 1434 1435 1436 1437 1444 1445 1446 1447 1448 1449 1468 1469 1470 1471 1472 1473 1528 1529 1530 1531 1532 1533 2251 2252 2253
718 719 720 904 905 906 910 911 912 1288 1289 1290 1294 1295 1296 1429 1430 1431 1438 1439 1440 1441 1442 1443 1450 1451 1452 1465 1466 1467 1474 1475 1476 1525 1526 1527 1534 1535 1536 2254 2255 2256
718 719 720 904 905 906 910 911 912 1288 1289 1290 1294 1295 1296 1429 1430 1431 1438 1439 1440 1441 1442 1443 1450 1451 1452 1465 1466 1467 1474 1475 1476 1525 1526 1527 1534 1535 1536 2254 2255 2256
718 719 720 904 905 906 910 911 912 1288 1289 1290 1294 1295 1296 1429 1430 1431 1438 1439 1440 1441 1442 1443 1450 1451 1452 1465 1466 1467 1474 1475 1476 1525 1526 1527 1534 1535 1536 2254 2255 2256
721 722 723 913 914 915 919 920 921 1297 1298 1299 1303 1304 1305 1345 1346 1347 1354 1355 1356 1441 1442 1443 1450 1451 1452 1501 1502 1503 1510 1511 1512 1525 1526 1527 1534 1535 1536 2257 2258 2259
721 722 723 913 914 915 919 920 921 1297 1298 1299 1303 1304 1305 1345 1346 1347 1354 1355 1356 1441 1442 1443 1450 1451 1452 1501 1502 1503 1510 1511 1512 1525 1526 1527 1534 1535 1536 2257 2258 2259
721 722 723 913 914 915 919 920 921 1297 1298 1299 1303 1304 1305 1345 1346 1347 1354 1355 1356 1441 1442 1443 1450 1451 1452 1501 1502 1503 1510 1511 1512 1525 1526 1527 1534 1535 1536 2257 2258 2259
724 725 726 916 917 918 922 923 924 1300 1301 1302 1306 1307 1308 1348 1349 1350 1351 1352 1353 1444 1445 1446 1447 1448 1449 1504 1505 1506 1507 1508 1509 1528 1529 1530 1531 1532 1533 2260 2261 2262
724 725 726 916 917 918 922 923 924 1300 1301 1302 1306 1307 1308 1348 1349 1350 1351 1352 1353 1444 1445 1446 1447 1448 1449 1504 1505 1506 1507 1508 1509 1528 1529 1530 1531 1532 1533 2260 2261 2262
724 725 726 916 917 918 922 923 924 1300 1301 1302 1306 1307 1308 1348 1349 1350 1351 1352 1353 1444 1445 1446 1447 1448 1449 1504 1505 1506 1507 1508 1509 1528 1529 1530 1531 1532 1533 2260 2261 2262
727 728 729 913 914 915 919 920 921 1297 1298 1299 1303 1304 1305 1348 1349 1350 1351 1352 1353 1444 1445 1446 1447 1448 1449 1504 1505 1506 1507 1508 1509 1528 1529 1530 1531 1532 1533 2263 2264 2265
727 728 729 913 914 915 919 920 921 1297 1298 1299 1303 1304 1305 1348 1349 1350 1351 1352 1353 1444 1445 1446 1447 1448 1449 1504 1505 1506 1507 1508 1509 1528 1529 1530 1531 1532 1533 2263 2264 2265
727 728 729 913 914 915 919 920 921 1297 1298 1299 1303 1304 1305 1348 1349 1350 1351 1352 1353 1444 1445 1446 1447 1448 1449 1504 1505 1506 1507 1508 1509 1528 1529 1530 1531 1532 1533 2263 2264 2265
730 731 732 916 917 918 922 923 924 1300 1301 1302 1306 1307 1308 1345 1346 1347 1354 1355 1356 1441 1442 1443 1450 1451 1452 1501 1502 1503 1510 1511 1512 1525 1526 1527 1534 1535 1536 2266 2267 2268
730 731 732 916 917 918 922 923 924 1300 1301 1302 1306 1307 1308 1345 1346 1347 1354 1355 1356 1441 1442 1443 1450 1451 1452 1501 1502 1503 1510 1511 1512 1525 1526 1527 1534 1535 1536 2266 2267 2268
730 731 732 916 917 918 922 923 924 1300 1301 1302 1306 1307 1308 1345 1346 1347 1354 1355 1356 1441 1442 1443 1450 1451 1452 1501 1502 1503 1510 1511 1512 1525 1526 1527 1534 1535 1536 2266 2267 2268
733 734 735 925 926 927 931 932 933 1309 1310 1311 1315 1316 1317 1357 1358 1359 1366 1367 1368 1453 1454 1455 1462 1463 1464 1489 1490 1491 1498 1499 1500 1513 1514 1515 1522 1523 1524 2269 2270 2271
733 734 735 925 926 927 931 932 933 1309 1310 1311 1315 1316 1317 1357 1358 1359 1366 1367 1368 1453 1454 1455 1462 1463 1464 1489 1490 1491 1498 1499 1500 1513 1514 1515 1522 1523 1524 2269 2270 2271
733 734 735 925 926 927 931 932 933 1309 1310 1311 1315 1316 1317 1357 1358 1359 1366 1367 1368 1453 1454 1455 1462 1463 1464 1489 1490 1491 1498 1499 1500 1513 1514 1515 1522 1523 1524 2269 2270 2271
736 737 738 928 929 930 934 935 936 1312 1313 1314 1318 1319 1320 1360 1361 1362 1363 1364 1365 1456 1457 1458 1459 1460 1461 1492 1493 1494 1495 1496 1497 1516 1517 1518 1519 1520 1521 2272 2273 2274
736 737 738 928 929 930 934 935 936 1312 1313 1314 1318 1319 1320 1360 1361 1362 1363 1364 1365 1456 1457 1458 1459 1460 1461 1492 1493 1494 1495 1496 1497 1516 1517 1518 1519 1520 1521 2272 2273 2274
736 737 738 928 929 930 934 935 936 1312 1313 1314 1318 1319 1320 1360 1361 1362 1363 1364 1365 1456 1457 1458 1459 1460 1461 1492 1493 1494 1495 1496 1497 1516 1517 1518 1519 1520 1521 2272 2273 2274
739 740 741 925 926 927 931 932 933 1309 1310 1311 1315 1316 1317 1360 1361 1362 1363 1364 1365 1456 1457 1458 1459 1460 1461 1492 1493 1494 1495 1496 1497 1516 1517 1518 1519 1520 1521 2275 2276 2277
739 740 741 925 926 927 931 932 933 1309 1310 1311 1315 1316 1317 1360 1361 1362 1363 1364 1365 1456 1457 1458 1459 1460 1461 1492 1493 1494 1495 1496 1497 1516 1517 1518 1519 1520 1521 2275 2276 2277
739 740 741 925 926 927 931 932 933 1309 1310 1311 1315 1316 1317 1360 1361 1362 1363 1364 1365 1456 1457 1458 1459 1460 1461 1492 1493 1494 1495 1496 1497 1516 1517 1518 1519 1520 1521 2275 2276 2277
742 743 744 928 929 930 934 935 936 1312 1313 1314 1318 1319 1320 1357 1358 1359 1366 1367 1368 1453 1454 1455 1462 1463 1464 1489 1490 1491 1498 1499 1500 1513 1514 1515 1522 1523 1524 2278 2279 2280
742 743 744 928 929 930 934 935 936 1312 1313 1314 1318 1319 1320 1357 1358 1359 1366 1367 1368 1453 1454 1455 1462 1463 1464 1489 1490 1491 1498 1499 1500 1513 1514 1515 1522 1523 1524 2278 2279 2280
742 743 744 928 929 930 934 935 936 1312 1313 1314 1318 1319 1320 1357 1358 1359 1366 1367 1368 1453 1454 1455 1462 1463 1464 1489 1490 1491 1498 1499 1500 1513 1514 1515 1522 1523 1524 2278 2279 2280
745 746 747 937 938 939 943 944 945 1321 1322 1323 1327 1328 1329 1369 1370 1371 1378 1379 1380 1465 1466 1467 1474 1475 1476 1501 1502 1503 1510 1511 1512 1525 1526 1527 1534 1535 1536 2281 2282 2283
745 746 747 937 938 939 943 944 945 1321 1322 1323 1327 1328 1329 1369 1370 1371 1378 1379 1380 1465 1466 1467 1474 1475 1476 1501 1502 1503 1510 1511 1512 1525 1526 1527 1534 1535 1536 2281 2282 2283
745 746 747 937 938 939 943 944 945 1321 1322 1323 1327 1328 1329 1369 1370 1371 1378 1379 1380 1465 1466 1467 1474 1475 1476 1501 1502 1503 1510 1511 1512 1525 1526 1527 1534 1535 1536 2281 2282 2283
748 749 750 940 941 942 946 947 948 1324 1325 1326 1330 1331 1332 1372 1373 1374 1375 1376 1377 1468 1469 1470 1471 1472 1473 1504 1505 1506 1507 1508 1509 1528 1529 1530 1531 1532 1533 2284 2285 2286
748 749 750 940 941 942 946 947 948 1324 1325 1326 1330 1331 1332 1372 1373 1374 1375 1376 1377 1468 1469 1470 1471 1472 1473 1504 1505 1506 1507 1508 1509 1528 1529 1530 1531 1532 1533 2284 2285 2286
748 749 750 940 941 942 946 947 948 1324 1325 1326 1330 1331 1332 1372 1373 1374 1375 1376 1377 1468 1469 1470 1471 1472 1473 1504 1505 1506 1507 1508 1509 1528 1529 1530 1531 1532 1533 2284 2285 2286
751 752 753 937 938 939 943 944 945 1321 1322 1323 1327 1328 1329 1372 1373 1374 1375 1376 1377 1468 1469 1470 1471 1472 1473 1504 1505 1506 1507 1508 1509 1528 1529 1530 1531 1532 1533 2287 2288 2289
751 752 753 937 938 939 943 944 945 1321 1322 1323 1327 1328 1329 1372 1373 1374 1375 1376 1377 1468 1469 1470 1471 1472 1473 1504 1505 1506 1507 1508 1509 1528 1529 1530 1531 1532 1533 2287 2288 2289
751 752 753 937 938 939 943 944 945 1321 1322 1323 1327 1328 1329 1372 1373 1374 1375 1376 1377 1468 1469 1470 1471 1472 1473 1504 1505 1506 1507 1508 1509 1528 1529 1530 1531 1532 1533 2287 2288 2289
754 755 756 940 941 942 946 947 948 1324 1325 1326 1330 1331 1332 1369 1370 1371 1378 1379 1380 1465 1466 1467 1474 1475 1476 1501 1502 1503 1510 1511 1512 1525 1526 1527 1534 1535 1536 2290 2291 2292
754 755 756 940 941 942 946 947 948 1324 1325 1326 1330 1331 1332 1369 1370 1371 1378 1379 1380 1465 1466 1467 1474 1475 1476 1501 1502 1503 1510 1511 1512 1525 1526 1527 1534 1535 1536 2290 2291 2292
754 755 756 940 941 942 946 947 948 1324 1325 1326 1330 1331 1332 1369 1370 1371 1378 1379 1380 1465 1466 1467 1474 1475 1476 1501 1502 1503 1510 1511 1512 1525 1526 1527 1534 1535 1536 2290 2291 2292
757 758 759 949 950 951 955 956 957 1333 1334 1335 1339 1340 1341 1381 1382 1383 1390 1391 1392 1477 1478 1479 1486 1487 1488 1489 1490 1491 1498 1499 1500 1513 1514 1515 1522 1523 1524 2293 2294 2295
757 758 759 949 950 951 955 956 957 1333 1334 1335 1339 1340 1341 1381 1382 1383 1390 1391 1392 1477 1478 1479 1486 1487 1488 1489 1490 1491 1498 1499 1500 1513 1514 1515 1522 1523 1524 2293 2294 2295
757 758 759 949 950 951 955 956 957 1333 1334 1335 1339 1340 1341 1381 1382 1383 1390 1391 1392 1477 1478 1479 1486 1487 1488 1489 1490 1491 1498 1499 1500 1513 1514 1515 1522 1523 1524 2293 2294 2295
760 761 762 952 953 954 958 959 960 1336 1337 1338 1342 1343 1344 1384 1385 1386 1387 1388 1389 1480 1481 1482 1483 1484 1485 1492 1493 1494 1495 1496 1497 1516 1517 1518 1519 1520 1521 2296 2297 2298
760 761 762 952 953 954 958 959 960 1336 1337 1338 1342 1343 1344 1384 1385 1386 1387 1388 1389 1480 1481 1482 1483 1484 1485 1492 1493 1494 1495 1496 1497 1516 1517 1518 1519 1520 1521 2296 2297 2298
760 761 762 952 953 954 958 959 960 1336 1337 1338 1342 1343 1344 1384 1385 1386 1387 1388 1389 1480 1481 1482 1483 1484 1485 1492 1493 1494 1495 1496 1497 1516 1517 1518 1519 1520 1521 2296 2297 2298
763 764 765 949 950 951 955 956 957 1333 1334 1335 1339 1340 1341 1384 1385 1386 1387 1388 1389 1480 1481 1482 1483 1484 1485 1492 1493 1494 1495 1496 1497 1516 1517 1518 1519 1520 1521 2299 2300 2301
763 764 765 949 950 951 955 956 957 1333 1334 1335 1339 1340 1341 1384 1385 1386 1387 1388 1389 1480 1481 1482 1483 1484 1485 1492 1493 1494 1495 1496 1497 1516 1517 1518 1519 1520 1521 2299 2300 2301
763 764 765 949 950 951 955 956 957 1333 1334 1335 1339 1340 1341 1384 1385 1386 1387 1388 1389 1480 1481 1482 1483 1484 1485 1492 1493 1494 1495 1496 1497 1516 1517 1518 1519 1520 1521 2299 2300 2301
766 767 768 952 953 954 958 959 960 1336 1337 1338 1342 1343 1344 1381 1382 1383 1390 1391 1392 1477 1478 1479 1486 1487 1488 1489 1490 1491 1498 1499 1500 1513 1514 1515 1522 1523 1524 2302 2303 2304
766 767 768 952 953 954 958 959 960 1336 1337 1338 1342 1343 1344 1381 1382 1383 1390 1391 1392 1477 1478 1479 1486 1487 1488 1489 1490 1491 1498 1499 1500 1513 1514 1515 1522 1523 1524 2302 2303 2304
766 767 768 952 953 954 958 959 960 1336 1337 1338 1342 1343 1344 1381 1382 1383 1390 1391 1392 1477 1478 1479 1486 1487 1488 1489 1490 1491 1498 1499 1500 1513 1514 1515 1522 1523 1524 2302 2303 2304
769 770 771 1549 1550 1551 1558 1559 1560 1573 1574 1575 1582 1583 1584 1585 1586 1587 1594 1595 1596 1681 1682 1683 1690 1691 1692 1729 1730 1731 1735 1736 1737 2113 2114 2115 2119 2120 2121 2305 2306 2307
769 770 771 1549 1550 1551 1558 1559 1560 1573 1574 1575 1582 1583 1584 1585 1586 1587 1594 1595 1596 1681 1682 1683 1690 1691 1692 1729 1730 1731 1735 1736 1737 2113 2114 2115 2119 2120 2121 2305 2306 2307
769 770 771 1549 1550 1551 1558 1559 1560 1573 1574 1575 1582 1583 1584 1585 1586 1587 1594 1595 1596 1681 1682 1683 1690 1691 1692 1729 1730 1731 1735 1736 1737 2113 2114 2115 2119 2120 2121 2305 2306 2307
772 773 774 1552 1553 1554 1555 1556 1557 1576 1577 1578 1579 1580 1581 1588 1589 1590 1591 1592 1593 1684 1685 1686 1687 1688 1689 1732 1733 1734 1738 1739 1740 2116 2117 2118 2122 2123 2124 2308 2309 2310
772 773 774 1552 1553 1554 1555 1556 1557 1576 1577 1578 1579 1580 1581 1588 1589 1590 1591 1592 1593 1684 1685 1686 1687 1688 1689 1732 1733 1734 1738 1739 1740 2116 2117 2118 2122 2123 2124 2308 2309 2310
772 773 774 1552 1553 1554 1555 1556 1557 1576 1577 1578 1579 1580 1581 1588 1589 1590 1591 1592 1593 1684 1685 1686 1687 1688 1689 1732 1733 1734 1738 1739 1740 2116 2117 2118 2122 2123 2124 2308 2309 2310
775 776 777 1552 1553 1554 1555 1556 1557 1576 1577 1578 1579 1580 1581 1588 1589 1590 1591 1592 1593 1684 1685 1686 1687 1688 1689 1729 1730 1731 1735 1736 1737 2113 2114 2115 2119 2120 2121 2311 2312 2313
775 776 777 1552 1553 1554 1555 1556 1557 1576 1577 1578 1579 1580 1581 1588 1589 1590 1591 1592 1593 1684 1685 1686 1687 1688 1689 1729 1730 1731 1735 1736 1737 2113 2114 2115 2119 2120 2121 2311 2312 2313
775 776 777 1552 1553 1554 1555 1556 1557 1576 1577 1578 1579 1580 1581 1588 1589 1590 1591 1592 1593 1684 1685 1686 1687 1688 1689 1729 1730 1731 1735 1736 1737 2113 2114 2115 2119 2120 2121 2311 2312 2313
778 779 780 1549 1550 1551 1558 1559 1560 1573 1574 1575 1582 1583 1584 1585 1586 1587 1594 1595 1596 1681 1682 1683 1690 1691 1692 1732 1733 1734 1738 1739 1740 2116 2117 2118 2122 2123 2124 2314 2315 2316
778 779 780 1549 1550 1551 1558 1559 1560 1573 1574 1575 1582 1583 1584 1585 1586 1587 1594 1595 1596 1681 1682 1683 1690 1691 1692 1732 1733 1734 1738 1739 1740 2116 2117 2118 2122 2123 2124 2314 2315 2316
778 779 780 1549 1550 1551 1558 1559 1560 1573 1574 1575 1582 1583 1584 1585 1586 1587 1594 1595 1596 1681 1682 1683 1690 1691 1692 1732 1733 1734 1738 1739 1740 2116 2117 2118 2122 2123 2124 2314 2315 2316
781 782 783 1537 1538 1539 1546 1547 1548 1561 1562 1563 1570 1571 1572 1597 1598 1599 1606 1607 1608 1693 1694 1695 1702 1703 1704 1741 1742 1743 1747 1748 1749 2125 2126 2127 2131 2132 2133 2317 2318 2319
781 782 783 1537 1538 1539 1546 1547 1548 1561 1562 1563 1570 1571 1572 1597 1598 1599 1606 1607 1608 1693 1694 1695 1702 1703 1704 1741 1742 1743 1747 1748 1749 2125 2126 2127 2131 2132 2133 2317 2318 2319
781 782 783 1537 1538 1539 1546 1547 1548 1561 1562 1563 1570 1571 1572 1597 1598 1599 1606 1607 1608 1693 1694 1695 1702 1703 1704 1741 1742 1743 1747 1748 1749 2125 2126 2127 2131 2132 2133 2317 2318 2319
784 785 786 1540 1541 1542 1543 1544 1545 1564 1565 1566 1567 1568 1569 1600 1601 1602 1603 1604 1605 1696 1697 1698 1699 1700 1701 1744 1745 1746 1750 1751 1752 2128 2129 2130 2134 2135 2136 2320 2321 2322
784 785 786 1540 1541 1542 1543 1544 1545 1564 1565 1566 1567 1568 1569 1600 1601 1602 1603 1604 1605 1696 1697 1698 1699 1700 1701 1744 1745 1746 1750 1751 1752 2128 2129 2130 2134 2135 2136 2320 2321 2322
784 785 786 1540 1541 1542 1543 1544 1545 1564 1565 1566 1567 1568 1569 1600 1601 1602 1603 1604 1605 1696 1697 1698 1699 1700 1701 1744 1745 1746 1750 1751 1752 2128 2129 2130 2134 2135 2136 2320 2321 2322
787 788 789 1540 1541 1542 1543 1544 1545 1564 1565 1566 1567 1568 1569 1600 1601 1602 1603 1604 1605 1696 1697 1698 1699 1700 1701 1741 1742 1743 1747 1748 1749 2125 2126 2127 2131 2132 2133 2323 2324 2325
787 788 789 1540 1541 1542 1543 1544 1545 1564 1565 1566 1567 1568 1569 1600 1601 1602 1603 1604 1605 1696 1697 1698 1699 1700 1701 1741 1742 1743 1747 1748 1749 2125 2126 2127 2131 2132 2133 2323 2324 2325
787 788 789 1540 1541 1542 1543 1544 1545 1564 1565 1566 1567 1568 1569 1600 1601 1602 1603 1604 1605 1696 1697 1698 1699 1700 1701 1741 1742 1743 1747 1748 1749 2125 2126 2127 2131 2132 2133 2323 2324 2325
790 791 792 1537 1538 1539 1546 1547 1548 1561 1562 1563 1570 1571 1572 1597 1598 1599 1606 1607 1608 1693 1694 1695 1702 1703 1704 1744 1745 1746 1750 1751 1752 2128 2129 2130 2134 2135 2136 2326 2327 2328
790 791 792 1537 1538 1539 1546 1547 1548 1561 1562 1563 1570 1571 1572 1597 1598 1599 1606 1607 1608 1693 1694 1695 1702 1703 1704 1744 1745 1746 1750 1751 1752 2128 2129 2130 2134 2135 2136 2326 2327 2328
790 791 792 1537 1538 1539 1546 1547 1548 1561 1562 1563 1570 1571 1572 1597 1598 1599 1606 1607 1608 1693 1694 1695 1702 1703 1704 1744 1745 1746 1750 1751 1752 2128 2129 2130 2134 2135 2136 2326 2327 2328
793 794 795 1549 1550 1551 1558 1559 1560 1573 1574 1575 1582 1583 1584 1609 1610 1611 1618 1619 1620 1705 1706 1707 1714 1715 1716 1753 1754 1755 1759 1760 1761 2137 2138 2139 2143 2144 2145 2329 2330 2331
793 794 795 1549 1550 1551 1558 1559 1560 1573 1574 1575 1582 1583 1584 1609 1610 1611 1618 1619 1620 1705 1706 1707 1714 1715 1716 1753 1754 1755 1759 1760 1761 2137 2138 2139 2143 2144 2145 2329 2330 2331
793 794 795 1549 1550 1551 1558 1559 1560 1573 1574 1575 1582 1583 1584 1609 1610 1611 1618 1619 1620 1705 1706 1707 1714 1715 1716 1753 1754 1755 1759 1760 1761 2137 2138 2139 2143 2144 2145 2329 2330 2331
796 797 798 1552 1553 1554 1555 1556 1557 1576 1577 1578 1579 1580 1581 1612 1613 1614 1615 1616 1617 1708 1709 1710 1711 1712 1713 1756 1757 1758 1762 1763 1764 2140 2141 2142 2146 2147 2148 2332 2333 2334
796 797 798 1552 1553 1554 1555 1556 1557 1576 1577 1578 1579 1580 1581 1612 1613 1614 1615 1616 1617 1708 1709 1710 1711 1712 1713 1756 1757 1758 1762 1763 1764 2140 2141 2142 2146 2147 2148 2332 2333 2334
796 797 798 1552 1553 1554 1555 1556 1557 1576 1577 1578 1579 1580 1581 1612 1613 1614 1615 1616 1617 1708 1709 1710 1711 1712 1713 1756 1757 1758 1762 1763 1764 2140 2141 2142 2146 2147 2148 2332 2333 2334
799 800 801 1552 1553 1554 1555 1556 1557 1576 1577 1578 1579 1580 1581 1612 1613 1614 1615 1616 1617 1708 1709 1710 1711 1712 1713 1753 1754 1755 1759 1760 1761 2137 2138 2139 2143 2144 2145 2335 2336 2337
799 800 801 1552 1553 1554 1555 1556 1557 1576 1577 1578 1579 1580 1581 1612 1613 1614 1615 1616 1617 1708 1709 1710 1711 1712 1713 1753 1754 1755 1759 1760 1761 2137 2138 2139 2143 2144 2145 2335 2336 2337
799 800 801 1552 1553 1554 1555 1556 1557 1576 1577 1578 1579 1580 1581 1612 1613 1614 1615 1616 1617 1708 1709 1710 1711 1712 1713 1753 1754 1755 1759 1760 1761 2137 2138 2139 2143 2144 2145 2335 2336 2337
802 803 804 1549 1550 1551 1558 1559 1560 1573 1574 1575 1582 1583 1584 1609 1610 1611 1618 1619 1620 1705 1706 1707 1714 1715 1716 1756 1757 1758 1762 1763 1764 2140 2141 2142 2146 2147 2148 2338 2339 2340
802 803 804 1549 1550 1551 1558 1559 1560 1573 1574 1575 1582 1583 1584 1609 1610 1611 1618 1619 1620 1705 1706 1707 1714 1715 1716 1756 1757 1758 1762 1763 1764 2140 2141 2142 2146 2147 2148 2338 2339 2340
802 803 804 1549 1550 1551 1558 1559 1560 1573 1574 1575 1582 1583 1584 1609 1610 1611 1618 1619 1620 1705 1706 1707 1714 1715 1716 1756 1757 1758 1762 1763 1764 2140 2141 2142 2146 2147 2148 2338 2339 2340
805 806 807 1537 1538 1539 1546 1547 1548 1561 1562 1563 1570 1571 1572 1621 1622 1623 1630 1631 1632 1717 1718 1719 1726 1727 1728 1765 1766 1767 1771 1772 1773 2149 2150 2151 2155 2156 2157 2341 2342 2343
805 806 807 1537 1538 1539 1546 1547 1548 1561 1562 1563 1570 1571 1572 1621 1622 1623 1630 1631 1632 1717 1718 1719 1726 1727 1728 1765 1766 1767 1771 1772 1773 2149 2150 2151 2155 2156 2157 2341 2342 2343
805 806 807 1537 1538 1539 1546 1547 1548 1561 1562 1563 1570 1571 1572 1621 1622 1623 1630 1631 1632 1717 1718 1719 1726 1727 1728 1765 1766 1767 1771 1772 1773 2149 2150 2151 2155 2156 2157 2341 2342 2343
808 809 810 1540 1541 1542 1543 1544 1545 1564 1565 1566 1567 1568 1569 1624 1625 1626 1627 1628 1629 1720 1721 1722 1723 1724 1725 1768 1769 1770 1774 1775 1776 2152 2153 2154 2158 2159 2160 2344 2345 2346
808 809 810 1540 1541 1542 1543 1544 1545 1564 1565 1566 1567 1568 1569 1624 1625 1626 1627 1628 1629 1720 1721 1722 1723 1724 1725 1768 1769 1770 1774 1775 1776 2152 2153 2154 2158 2159 2160 2344 2345 2346
808 809 810 1540 1541 1542 1543 1544 1545 1564 1565 1566 1567 1568 1569 1624 1625 1626 1627 1628 1629 1720 1721 1722 1723 1724 1725 1768 1769 1770 1774 1775 1776 2152 2153 2154 2158 2159 2160 2344 2345 2346
811 812 813 1540 1541 1542 1543 1544 1545 1564 1565 1566 1567 1568 1569 1624 1625 1626 1627 1628 1629 1720 1721 1722 1723 1724 1725 1765 1766 1767 1771 1772 1773 2149 2150 2151 2155 2156 2157 2347 2348 2349
811 812 813 1540 1541 1542 1543 1544 1545 1564 1565 1566 1567 1568 1569 1624 1625 1626 1627 1628 1629 1720 1721 1722 1723 1724 1725 1765 1766 1767 1771 1772 1773 2149 2150 2151 2155 2156 2157 2347 2348 2349
811 812 813 1540 1541 1542 1543 1544 1545 1564 1565 1566 1567 1568 1569 1624 1625 1626 1627 1628 1629 1720 1721 1722 1723 1724 1725 1765 1766 1767 1771 1772 1773 2149 2150 2151 2155 2156 2157 2347 2348 2349
814 815 816 1537 1538 1539 1546 1547 1548 1561 1562 1563 1570 1571 1572 1621 1622 1623 1630 1631 1632 1717 1718 1719 1726 1727 1728 1768 1769 1770 1774 1775 1776 2152 2153 2154 2158 2159 2160 2350 2351 2352
814 815 816 1537 1538 1539 1546 1547 1548 1561 1562 1563 1570 1571 1572 1621 1622 1623 1630 1631 1632 1717 1718 1719 1726 1727 1728 1768 1769 1770 1774 1775 1776 2152 2153 2154 2158 2159 2160 2350 2351 2352
814 815 816 1537 1538 1539 1546 1547 1548 1561 1562 1563 1570 1571 1572 1621 1622 1623 1630 1631 1632 1717 1718 1719 1726 1727 1728 1768 1769 1770 1774 1775 1776 2152 2153 2154 2158 2159 2160 2350 2351 2352
817 818 819 1537 1538 1539 1546 1547 1548 1597 1598 1599 1606 1607 1608 1621 1622 1623 1630 1631 1632 1633 1634 1635 1642 1643 1644 1777 1778 1779 1783 1784 1785 2161 2162 2163 2167 2168 2169 2353 2354 2355
817 818 819 1537 1538 1539 1546 1547 1548 1597 1598 1599 1606 1607 1608 1621 1622 1623 1630 1631 1632 1633 1634 1635 1642 1643 1644 1777 1778 1779 1783 1784 1785 2161 2162 2163 2167 2168 2169 2353 2354 2355
817 818 819 1537 1538 1539 1546 1547 1548 1597 1598 1599 1606 1607 1608 1621 1622 1623 1630 1631 1632 1633 1634 1635 1642 1643 1644 1777 1778 1779 1783 1784 1785 2161 2162 2163 2167 2168 2169 2353 2354 2355
820 821 822 1540 1541 1542 1543 1544 1545 1600 1601 1602 1603 1604 1605 1624 1625 1626 1627 1628 1629 1636 1637 1638 1639 1640 1641 1780 1781 1782 1786 1787 1788 2164 2165 2166 2170 2171 2172 2356 2357 2358
820 821 822 1540 1541 1542 1543 1544 1545 1600 1601 1602 1603 1604 1605 1624 1625 1626 1627 1628 1629 1636 1637 1638 1639 1640 1641 1780 1781 1782 1786 1787 1788 2164 2165 2166 2170 2171 2172 2356 2357 2358
820 821 822 1540 1541 1542 1543 1544 1545 1600 1601 1602 1603 1604 1605 1624 1625 1626 1627 1628 1629 1636 1637 1638 1639 1640 1641 1780 1781 1782 1786 1787 1788 2164 2165 2166 2170 2171 2172 2356 2357 2358
823 824 825 1540 1541 1542 1543 1544 1545 1600 1601 1602 1603 1604 1605 1624 1625 1626 1627 1628 1629 1636 1637 1638 1639 1640 1641 1777 1778 1779 1783 1784 1785 2161 2162 2163 2167 2168 2169 2359 2360 2361
823 824 825 1540 1541 1542 1543 1544 1545 1600 1601 1602 1603 1604 1605 1624 1625 1626 1627 1628 1629 1636 1637 1638 1639 1640 1641 1777 1778 1779 1783 1784 1785 2161 2162 2163 2167 2168 2169 2359 2360 2361
823 824 825 1540 1541 1542 1543 1544 1545 1600 1601 1602 1603 1604 1605 1624 1625 1626 1627 1628 1629 1636 1637 1638 1639 1640 1641 1777 1778 1779 1783 1784 1785 2161 2162 2163 2167 2168 2169 2359 2360 2361
826 827 828 1537 1538 1539 1546 1547 1548 1597 1598 1599 1606 1607 1608 1621 1622 1623 1630 1631 1632 1633 1634 1635 1642 1643 1644 1780 1781 1782 1786 1787 1788 2164 2165 2166 2170 2171 2172 2362 2363 2364
826 827 828 1537 1538 1539 1546 1547 1548 1597 1598 1599 1606 1607 1608 1621 1622 1623 1630 1631 1632 1633 1634 1635 1642 1643 1644 1780 1781 1782 1786 1787 1788 2164 2165 2166 2170 2171 2172 2362 2363 2364
826 827 828 1537 1538 1539 1546 1547 1548 1597 1598 1599 1606 1607 1608 1621 1622 1623 1630 1631 1632 1633 1634 1635 1642 1643 1644 1780 1781 1782 1786 1787 1788 2164 2165 2166 2170 2171 2172 2362 2363 2364
829 830 831 1549 1550 1551 1558 1559 1560 1585 1586 1587 1594 1595 1596 1609 1610 1611 1618 1619 1620 1645 1646 1647 1654 1655 1656 1789 1790 1791 1795 1796 1797 2173 2174 2175 2179 2180 2181 2365 2366 2367
829 830 831 1549 1550 1551 1558 1559 1560 1585 1586 1587 1594 1595 1596 1609 1610 1611 1618 1619 1620 1645 1646 1647 1654 1655 1656 1789 1790 1791 1795 1796 1797 2173 2174 2175 2179 2180 2181 2365 2366 2367
829 830 831 1549 1550 1551 1558 1559 1560 1585 1586 1587 1594 1595 1596 1609 1610 1611 1618 1619 1620 1645 1646 1647 1654 1655 1656 1789 1790 1791 1795 1796 1797 2173 2174 2175 2179 2180 2181 2365 2366 2367
832 833 834 1552 1553 1554 1555 1556 1557 1588 1589 1590 1591 1592 1593 1612 1613 1614 1615 1616 1617 1648 1649 1650 1651 1652 1653 1792 1793 1794 1798 1799 1800 2176 2177 2178 2182 2183 2184 2368 2369 2370
832 833 834 1552 1553 1554 1555 1556 1557 1588 1589 1590 1591 1592 1593 1612 1613 1614 1615 1616 1617 1648 1649 1650 1651 1652 1653 1792 1793 1794 1798 1799 1800 2176 2177 2178 2182 2183 2184 2368 2369 2370
832 833 834 1552 1553 1554 1555 1556 1557 1588 1589 1590 1591 1592 1593 1612 1613 1614 1615 1616 1617 1648 1649 1650 1651 1652 1653 1792 1793 1794 1798 1799 1800 2176 2177 2178 2182 2183 2184 2368 2369 2370
835 836 837 1552 1553 1554 1555 1556 1557 1588 1589 1590 1591 1592 1593 1612 1613 1614 1615 1616 1617 1648 1649 1650 1651 1652 1653 1789 1790 1791 1795 1796 1797 2173 2174 2175 2179 2180 2181 2371 2372 2373
835 836 837 1552 1553 1554 1555 1556 1557 1588 1589 1590 1591 1592 1593 1612 1613 1614 1615 1616 1617 1648 1649 1650 1651 1652 1653 1789 1790 1791 1795 1796 1797 2173 2174 2175 2179 2180 2181 2371 2372 2373
835 836 837 1552 1553 1554 1555 1556 1557 1588 1589 1590 1591 1592 1593 1612 1613 1614 1615 1616 1617 1648 1649 1650 1651 1652 1653 1789 1790 1791 1795 1796 1797 2173 2174 2175 2179 2180 2181 2371 2372 2373
838 839 840 1549 1550 1551 1558 1559 1560 1585 1586 1587 1594 1595 1596 1609 1610 1611 1618 1619 1620 1645 1646 1647 1654 1655 1656 1792 1793 1794 1798 1799 1800 2176 2177 2178 2182 2183 2184 2374 2375 2376
838 839 840 1549 1550 1551 1558 1559 1560 1585 1586 1587 1594 1595 1596 1609 1610 1611 1618 1619 1620 1645 1646 1647 1654 1655 1656 1792 1793 1794 1798 1799 1800 2176 2177 2178 2182 2183 2184 2374 2375 2376
838 839 840 1549 1550 1551 1558 1559 1560 1585 1586 1587 1594 1595 1596 1609 1610 1611 1618 1619 1620 1645 1646 1647 1654 1655 1656 1792 1793 1794 1798 1799 1800 2176 2177 2178 2182 2183 2184 2374 2375 2376
841 842 843 1561 1562 1563 1570 1571 1572 1597 1598 1599 1606 1607 1608 1621 1622 1623 1630 1631 1632 1657 1658 1659 1666 1667 1668 1801 1802 1803 1807 1808 1809 2185 2186 2187 2191 2192 2193 2377 2378 2379
841 842 843 1561 1562 1563 1570 1571 1572 1597 1598 1599 1606 1607 1608 1621 1622 1623 1630 1631 1632 1657 1658 1659 1666 1667 1668 1801 1802 1803 1807 1808 1809 2185 2186 2187 2191 2192 2193 2377 2378 2379
841 842 843 1561 1562 1563 1570 1571 1572 1597 1598 1599 1606 1607 1608 1621 1622 1623 1630 1631 1632 1657 1658 1659 1666 1667 1668 1801 1802 1803 1807 1808 1809 2185 2186 2187 2191 2192 2193 2377 2378 2379
844 845 846 1564 1565 1566 1567 1568 1569 1600 1601 1602 1603 1604 1605 1624 1625 1626 1627 1628 1629 1660 1661 1662 1663 1664 1665 1804 1805 1806 1810 1811 1812 2188 2189 2190 2194 2195 2196 2380 2381 2382
844 845 846 1564 1565 1566 1567 1568 1569 1600 1601 1602 1603 1604 1605 1624 1625 1626 1627 1628 1629 1660 1661 1662 1663 1664 1665 1804 1805 1806 1810 1811 1812 2188 2189 2190 2194 2195 2196 2380 2381 2382
844 845 846 1564 1565 1566 1567 1568 1569 1600 1601 1602 1603 1604 1605 1624 1625 1626 1627 1628 1629 1660 1661 1662 1663 1664 1665 1804 1805 1806 1810 1811 1812 2188 2189 2190 2194 2195 2196 2380 2381 2382
847 848 849 1564 1565 1566 1567 1568 1569 1600 1601 1602 1603 1604 1605 1624 1625 1626 1627 1628 1629 1660 1661 1662 1663 1664 1665 1801 1802 1803 1807 1808 1809 2185 2186 2187 2191 2192 2193 2383 2384 2385
847 848 849 1564 1565 1566 1567 1568 1569 1600 1601 1602 1603 1604 1605 1624 1625 1626 1627 1628 1629 1660 1661 1662 1663 1664 1665 1801 1802 1803 1807 1808 1809 2185 2186 2187 2191 2192 2193 2383 2384 2385
847 848 849 1564 1565 1566 1567 1568 1569 1600 1601 1602 1603 1604 1605 1624 1625 1626 1627 1628 1629 1660 1661 1662 1663 1664 1665 1801 1802 1803 1807 1808 1809 2185 2186 2187 2191 2192 2193 2383 2384 2385
850 851 852 1561 1562 1563 1570 1571 1572 1597 1598 1599 1606 1607 1608 1621 1622 1623 1630 1631 1632 1657 1658 1659 1666 1667 1668 1804 1805 1806 1810 1811 1812 2188 2189 2190 2194 2195 2196 2386 2387 2388
850 851 852 1561 1562 1563 1570 1571 1572 1597 1598 1599 1606 1607 1608 1621 1622 1623 1630 1631 1632 1657 1658 1659 1666 1667 1668 1804 1805 1806 1810 1811 1812 2188 2189 2190 2194 2195 2196 2386 2387 2388
850 851 852 1561 1562 1563 1570 1571 1572 1597 1598 1599 1606 1607 1608 1621 1622 1623 1630 1631 1632 1657 1658 1659 1666 1667 1668 1804 1805 1806 1810 1811 1812 2188 2189 2190 2194 2195 2196 2386 2387 2388
853 854 855 1573 1574 1575 1582 1583 1584 1585 1586 1587 1594 1595 1596 1609 1610 1611 1618 1619 1620 1669 1670 1671 1678 1679 1680 1813 1814 1815 1819 1820 1821 2197 2198 2199 2203 2204 2205 2389 2390 2391
853 854 855 1573 1574 1575 1582 1583 1584 1585 1586 1587 1594 1595 1596 1609 1610 1611 1618 1619 1620 1669 1670 1671 1678 1679 1680 1813 1814 1815 1819 1820 1821 2197 2198 2199 2203 2204 2205 2389 2390 2391
853 854 855 1573 1574 1575 1582 1583 1584 1585 1586 1587 1594 1595 1596 1609 1610 1611 1618 1619 1620 1669 1670 1671 1678 1679 1680 1813 1814 1815 1819 1820 1821 2197 2198 2199 2203 2204 2205 2389 2390 2391
856 857 858 1576 1577 1578 1579 1580 1581 1588 1589 1590 1591 1592 1593 1612 1613 1614 1615 1616 1617 1672 1673 1674 1675 1676 1677 1816 1817 1818 1822 1823 1824 2200 2201 2202 2206 2207 2208 2392 2393 2394
856 857 858 1576 1577 1578 1579 1580 1581 1588 1589 1590 1591 1592 1593 1612 1613 1614 1615 1616 1617 1672 1673 1674 1675 1676 1677 1816 1817 1818 1822 1823 1824 2200 2201 2202 2206 2207 2208 2392 2393 2394
856 857 858 1576 1577 1578 1579 1580 1581 1588 1589 1590 1591 1592 1593 1612 1613 1614 1615 1616 1617 1672 1673 1674 1675 1676 1677 1816 1817 1818 1822 1823 1824 2200 2201 2202 2206 2207 2208 2392 2393 2394
859 860 861 1576 1577 1578 1579 1580 1581 1588 1589 1590 1591 1592 1593 1612 1613 1614 1615 1616 1617 1672 1673 1674 1675 1676 1677 1813 1814 1815 1819 1820 1821 2197 2198 2199 2203 2204 2205 2395 2396 2397
859 860 861 1576 1577 1578 1579 1580 1581 1588 1589 1590 1591 1592 1593 1612 1613 1614 1615 1616 1617 1672 1673 1674 1675 1676 1677 1813 1814 1815 1819 1820 1821 2197 2198 2199 2203 2204 2205 2395 2396 2397
859 860 861 1576 1577 1578 1579 1580 1581 1588 1589 1590 1591 1592 1593 1612 1613 1614 1615 1616 1617 1672 1673 1674 1675 1676 1677 1813 1814 1815 1819 1820 1821 2197 2198 2199 2203 2204 2205 2395 2396 2397
862 863 864 1573 1574 1575 1582 1583 1584 1585 1586 1587 1594 1595 1596 1609 1610 1611 1618 1619 1620 1669 1670 1671 1678 1679 1680 1816 1817 1818 1822 1823 1824 2200 2201 2202 2206 2207 2208 2398 2399 2400
862 863 864 1573 1574 1575 1582 1583 1584 1585 1586 1587 1594 1595 1596 1609 1610 1611 1618 1619 1620 1669 1670 1671 1678 1679 1680 1816 1817 1818 1822 1823 1824 2200 2201 2202 2206 2207 2208 2398 2399 2400
862 863 864 1573 1574 1575 1582 1583 1584 1585 1586 1587 1594 1595 1596 1609 1610 1611 1618 1619 1620 1669 1670 1671 1678 1679 1680 1816 1817 1818 1822 1823 1824 2200 2201 2202 2206 2207 2208 2398 2399 2400
865 866 867 1585 1586 1587 1594 1595 1596 1645 1646 1647 1654 1655 1656 1669 1670 1671 1678 1679 1680 1681 1682 1683 1690 1691 1692 1825 1826 1827 1831 1832 1833 2209 2210 2211 2215 2216 2217 2401 2402 2403
865 866 867 1585 1586 1587 1594 1595 1596 1645 1646 1647 1654 1655 1656 1669 1670 1671 1678 1679 1680 1681 1682 1683 1690 1691 1692 1825 1826 1827 1831 1832 1833 2209 2210 2211 2215 2216 2217 2401 2402 2403
865 866 867 1585 1586 1587 1594 1595 1596 1645 1646 1647 1654 1655 1656 1669 1670 1671 1678 1679 1680 1681 1682 1683 1690 1691 1692 1825 1826 1827 1831 1832 1833 2209 2210 2211 2215 2216 2217 2401 2402 2403
868 869 870 1588 1589 1590 1591 1592 1593 1648 1649 1650 1651 1652 1653 1672 1673 1674 1675 1676 1677 1684 1685 1686 1687 1688 1689 1828 1829 1830 1834 1835 1836 2212 2213 2214 2218 2219 2220 2404 2405 2406
868 869 870 1588 1589 1590 1591 1592 1593 1648 1649 1650 1651 1652 1653 1672 1673 1674 1675 1676 1677 1684 1685 1686 1687 1688 1689 1828 1829 1830 1834 1835 1836 2212 2213 2214 2218 2219 2220 2404 2405 2406
868 869 870 1588 1589 1590 1591 1592 1593 1648 1649 1650 1651 1652 1653 1672 1673 1674 1675 1676 1677 1684 1685 1686 1687 1688 1689 1828 1829 1830 1834 1835 1836 2212 2213 2214 2218 2219 2220 2404 2405 2406
871 872 873 1588 1589 1590 1591 1592 1593 1648 1649 1650 1651 1652 1653 1672 1673 1674 1675 1676 1677 1684 1685 1686 1687 1688 1689 1825 1826 1827 1831 1832 1833 2209 2210 2211 2215 2216 2217 2407 2408 2409
871 872 873 1588 1589 1590 1591 1592 1593 1648 1649 1650 1651 1652 1653 1672 1673 1674 1675 1676 1677 1684 1685 1686 1687 1688 1689 1825 1826 1827 1831 1832 1833 2209 2210 2211 2215 2216 2217 2407 2408 2409
871 872 873 1588 1589 1590 1591 1592 1593 1648 1649 1650 1651 1652 1653 1672 1673 1674 1675 1676 1677 1684 1685 1686 1687 1688 1689 1825 1826 1827 1831 1832 1833 2209 2210 2211 2215 2216 2217 2407 2408 2409
874 875 876 1585 1586 1587 1594 1595 1596 1645 1646 1647 1654 1655 1656 1669 1670 1671 1678 1679 1680 1681 1682 1683 1690 1691 1692 1828 1829 1830 1834 1835 1836 2212 2213 2214 2218 2219 2220 2410 2411 2412
874 875 876 1585 1586 1587 1594 1595 1596 1645 1646 1647 1654 1655 1656 1669 1670 1671 1678 1679 1680 1681 1682 1683 1690 1691 1692 1828 1829 1830 1834 1835 1836 2212 2213 2214 2218 2219 2220 2410 2411 2412
874 875 876 1585 1586 1587 1594 1595 1596 1645 1646 1647 1654 1655 1656 1669 1670 1671 1678 1679 1680 1681 1682 1683 1690 1691 1692 1828 1829 1830 1834 1835 1836 2212 2213 2214 2218 2219 2220 2410 2411 2412
877 878 879 1597 1598 1599 1606 1607 1608 1633 1634 1635 1642 1643 1644 1657 1658 1659 1666 1667 1668 1693 1694 1695 1702 1703 1704 1837 1838 1839 1843 1844 1845 2221 2222 2223 2227 2228 2229 2413 2414 2415
877 878 879 1597 1598 1599 1606 1607 1608 1633 1634 1635 1642 1643 1644 1657 1658 1659 1666 1667 1668 1693 1694 1695 1702 1703 1704 1837 1838 1839 1843 1844 1845 2221 2222 2223 2227 2228 2229 2413 2414 2415
877 878 879 1597 1598 1599 1606 1607 1608 1633 1634 1635 1642 1643 1644 1657 1658 1659 1666 1667 1668 1693 1694 1695 1702 1703 1704 1837 1838 1839 1843 1844 1845 2221 2222 2223 2227 2228 2229 2413 2414 2415
880 881 882 1600 1601 1602 1603 1604 1605 1636 1637 1638 1639 1640 1641 1660 1661 1662 1663 1664 1665 1696 1697 1698 1699 1700 1701 1840 1841 1842 1846 1847 1848 2224 2225 2226 2230 2231 2232 2416 2417 2418
880 881 882 1600 1601 1602 1603 1604 1605 1636 1637 1638 1639 1640 1641 1660 1661 1662 1663 1664 1665 1696 1697 1698 1699 1700 1701 1840 1841 1842 1846 1847 1848 2224 2225 2226 2230 2231 2232 2416 2417 2418
880 881 882 1600 1601 1602 1603 1604 1605 1636 1637 1638 1639 1640 1641 1660 1661 1662 1663 1664 1665 1696 1697 1698 1699 1700 1701 1840 1841 1842 1846 1847 1848 2224 2225 2226 2230 2231 2232 2416 2417 2418
883 884 885 1600 1601 1602 1603 1604 1605 1636 1637 1638 1639 1640 1641 1660 1661 1662 1663 1664 1665 1696 1697 1698 1699 1700 1701 1837 1838 1839 1843 1844 1845 2221 2222 2223 2227 2228 2229 2419 2420 2421
883 884 885 1600 1601 1602 1603 1604 1605 1636 1637 1638 1639 1640 1641 1660 1661 1662 1663 1664 1665 1696 1697 1698 1699 1700 1701 1837 1838 1839 1843 1844 1845 2221 2222 2223 2227 2228 2229 2419 2420 2421
883 884 885 1600 1601 1602 1603 1604 1605 1636 1637 1638 1639 1640 1641 1660 1661 1662 1663 1664 1665 1696 1697 1698 1699 1700 1701 1837 1838 1839 1843 1844 1845 2221 2222 2223 2227 2228 2229 2419 2420 2421
886 887 888 1597 1598 1599 1606 1607 1608 1633 1634 1635 1642 1643 1644 1657 1658 1659 1666 1667 1668 1693 1694 1695 1702 1703 1704 1840 1841 1842 1846 1847 1848 2224 2225 2226 2230 2231 2232 2422 2423 2424
886 887 888 1597 1598 1599 1606 1607 1608 1633 1634 1635 1642 1643 1644 1657 1658 1659 1666 1667 1668 1693 1694 1695 1702 1703 1704 1840 1841 1842 1846 1847 1848 2224 2225 2226 2230 2231 2232 2422 2423 2424
886 887 888 1597 1598 1599 1606 1607 1608 1633 1634 1635 1642 1643 1644 1657 1658 1659 1666 1667 1668 1693 1694 1695 1702 1703 1704 1840 1841 1842 1846 1847 1848 2224 2225 2226 2230 2231 2232 2422 2423 2424
889 890 891 1609 1610 1611 1618 1619 1620 1645 1646 1647 1654 1655 1656 1669 1670 1671 1678 1679 1680 1705 1706 1707 1714 1715 1716 1849 1850 1851 1855 1856 1857 2233 2234 2235 2239 2240 2241 2425 2426 2427
889 890 891 1609 1610 1611 1618 1619 1620 1645 1646 1647 1654 1655 1656 1669 1670 1671 1678 1679 1680 1705 1706 1707 1714 1715 1716 1849 1850 1851 1855 1856 1857 2233 2234 2235 2239 2240 2241 2425 2426 2427
889 890 891 1609 1610 1611 1618 1619 1620 1645 1646 1647 1654 1655 1656 1669 1670 1671 1678 1679 1680 1705 1706 1707 1714 1715 1716 1849 1850 1851 1855 1856 1857 2233 2234 2235 2239 2240 2241 2425 2426 2427
892 893 894 1612 1613 1614 1615 1616 1617 1648 1649 1650 1651 1652 1653 1672 1673 1674 1675 1676 1677 1708 1709 1710 1711 1712 1713 1852 1853 1854 1858 1859 1860 2236 2237 2238 2242 2243 2244 2428 2429 2430
892 893 894 1612 1613 1614 1615 1616 1617 1648 1649 1650 1651 1652 1653 1672 1673 1674 1675 1676 1677 1708 1709 1710 1711 1712 1713 1852 1853 1854 1858 1859 1860 2236 2237 2238 2242 2243 2244 2428 2429 2430
892 893 894 1612 1613 1614 1615 1616 1617 1648 1649 1650 1651 1652 1653 1672 1673 1674 1675 1676 1677 1708 1709 1710 1711 1712 1713 1852 1853 1854 1858 1859 1860 2236 2237 2238 2242 2243 2244 2428 2429 2430
895 896 897 1612 1613 1614 1615 1616 1617 1648 1649 1650 1651 1652 1653 1672 1673 1674 1675 1676 1677 1708 1709 1710 1711 1712 1713 1849 1850 1851 1855 1856 1857 2233 2234 2235 2239 2240 2241 2431 2432 2433
895 896 897 1612 1613 1614 1615 1616 1617 1648 1649 1650 1651 1652 1653 1672 1673 1674 1675 1676 1677 1708 1709 1710 1711 1712 1713 1849 1850 1851 1855 1856 1857 2233 2234 2235 2239 2240 2241 2431 2432 2433
895 896 897 1612 1613 1614 1615 1616 1617 1648 1649 1650 1651 1652 1653 1672 1673 1674 1675 1676 1677 1708 1709 1710 1711 1712 1713 1849 1850 1851 1855 1856 1857 2233 2234 2235 2239 2240 2241 2431 2432 2433
898 899 900 1609 1610 1611 1618 1619 1620 1645 1646 1647 1654 1655 1656 1669 1670 1671 1678 1679 1680 1705 1706 1707 1714 1715 1716 1852 1853 1854 1858 1859 1860 2236 2237 2238 2242 2243 2244 2434 2435 2436
898 899 900 1609 1610 1611 1618 1619 1620 1645 1646 1647 1654 1655 1656 1669 1670 1671 1678 1679 1680 1705 1706 1707 1714 1715 1716 1852 1853 1854 1858 1859 1860 2236 2237 2238 2242 2243 2244 2434 2435 2436
898 899 900 1609 1610 1611 1618 1619 1620 1645 1646 1647 1654 1655 1656 1669 1670 1671 1678 1679 1680 1705 1706 1707 1714 1715 1716 1852 1853 1854 1858 1859 1860 2236 2237 2238 2242 2243 2244 2434 2435 2436
901 902 903 1621 1622 1623 1630 1631 1632 1633 1634 1635 1642 1643 1644 1657 1658 1659 1666 1667 1668 1717 1718 1719 1726 1727 1728 1861 1862 1863 1867 1868 1869 2245 2246 2247 2251 2252 2253 2437 2438 2439
901 902 903 1621 1622 1623 1630 1631 1632 1633 1634 1635 1642 1643 1644 1657 1658 1659 1666 1667 1668 1717 1718 1719 1726 1727 1728 1861 1862 1863 1867 1868 1869 2245 2246 2247 2251 2252 2253 2437 2438 2439
901 902 903 1621 1622 1623 1630 1631 1632 1633 1634 1635 1642 1643 1644 1657 1658 1659 1666 1667 1668 1717 1718 1719 1726 1727 1728 1861 1862 1863 1867 1868 1869 2245 2246 2247 2251 2252 2253 2437 2438 2439
904 905 906 1624 1625 1626 1627 1628 1629 1636 1637 1638 1639 1640 1641 1660 1661 1662 1663 1664 1665 1720 1721 1722 1723 1724 1725 1864 1865 1866 1870 1871 1872 2248 2249 2250 2254 2255 2256 2440 2441 2442
904 905 906 1624 1625 1626 1627 1628 1629 1636 1637 1638 1639 1640 1641 1660 1661 1662 1663 1664 1665 1720 1721 1722 1723 1724 1725 1864 1865 1866 1870 1871 1872 2248 2249 2250 2254 2255 2256 2440 2441 2442
904 905 906 1624 1625 1626 1627 1628 1629 1636 1637 1638 1639 1640 1641 1660 1661 1662 1663 1664 1665 1720 1721 1722 1723 1724 1725 1864 1865 1866 1870 1871 1872 2248 2249 2250 2254 2255 2256 2440 2441 2442
907 908 909 1624 1625 1626 1627 1628 1629 1636 1637 1638 1639 1640 1641 1660 1661 1662 1663 1664 1665 1720 1721 1722 1723 1724 1725 1861 1862 1863 1867 1868 1869 2245 2246 2247 2251 2252 2253 2443 2444 2445
907 908 909 1624 1625 1626 1627 1628 1629 1636 1637 1638 1639 1640 1641 1660 1661 1662 1663 1664 1665 1720 1721 1722 1723 1724 1725 1861 1862 1863 1867 1868 1869 2245 2246 2247 2251 2252 2253 2443 2444 2445
907 908 909 1624 1625 1626 1627 1628 1629 1636 1637 1638 1639 1640 1641 1660 1661 1662 1663 1664 1665 1720 1721 1722 1723 1724 1725 1861 1862 1863 1867 1868 1869 2245 2246 2247 2251 2252 2253 2443 2444 2445
910 911 912 1621 1622 1623 1630 1631 1632 1633 1634 1635 1642 1643 1644 1657 1658 1659 1666 1667 1668 1717 1718 1719 1726 1727 1728 1864 1865 1866 1870 1871 1872 2248 2249 2250 2254 2255 2256 2446 2447 2448
910 911 912 1621 1622 1623 1630 1631 1632 1633 1634 1635 1642 1643 1644 1657 1658 1659 1666 1667 1668 1717 1718 1719 1726 1727 1728 1864 1865 1866 1870 1871 1872 2248 2249 2250 2254 2255 2256 2446 2447 2448
910 911 912 1621 1622 1623 1630 1631 1632 1633 1634 1635 1642 1643 1644 1657 1658 1659 1666 1667 1668 1717 1718 1719 1726 1727 1728 1864 1865 1866 1870 1871 1872 2248 2249 2250 2254 2255 2256 2446 2447 2448
913 914 915 1537 1538 1539 1546 1547 1548 1633 1634 1635 1642 1643 1644 1693 1694 1695 1702 1703 1704 1717 1718 1719 1726 1727 1728 1873 1874 1875 1879 1880 1881 2257 2258 2259 2263 2264 2265 2449 2450 2451
913 914 915 1537 1538 1539 1546 1547 1548 1633 1634 1635 1642 1643 1644 1693 1694 1695 1702 1703 1704 1717 1718 1719 1726 1727 1728 1873 1874 1875 1879 1880 1881 2257 2258 2259 2263 2264 2265 2449 2450 2451
913 914 915 1537 1538 1539 1546 1547 1548 1633 1634 1635 1642 1643 1644 1693 1694 1695 1702 1703 1704 1717 1718 1719 1726 1727 1728 1873 1874 1875 1879 1880 1881 2257 2258 2259 2263 2264 2265 2449 2450 2451
916 917 918 1540 1541 1542 1543 1544 1545 1636 1637 1638 1639 1640 1641 1696 1697 1698 1699 1700 1701 1720 1721 1722 1723 1724 1725 1876 1877 1878 1882 1883 1884 2260 2261 2262 2266 2267 2268 2452 2453 2454
916 917 918 1540 1541 1542 1543 1544 1545 1636 1637 1638 1639 1640 1641 1696 1697 1698 1699 1700 1701 1720 1721 1722 1723 1724 1725 1876 1877 1878 1882 1883 1884 2260 2261 2262 2266 2267 2268 2452 2453 2454
916 917 918 1540 1541 1542 1543 1544 1545 1636 1637 1638 1639 1640 1641 1696 1697 1698 1699 1700 1701 1720 1721 1722 1723 1724 1725 1876 1877 1878 1882 1883 1884 2260 2261 2262 2266 2267 2268 2452 2453 2454
919 920 921 1540 1541 1542 1543 1544 1545 1636 1637 1638 1639 1640 1641 1696 1697 1698 1699 1700 1701 1720 1721 1722 1723 1724 1725 1873 1874 1875 1879 1880 1881 2257 2258 2259 2263 2264 2265 2455 2456 2457
919 920 921 1540 1541 1542 1543 1544 1545 1636 1637 1638 1639 1640 1641 1696 1697 1698 1699 1700 1701 1720 1721 1722 1723 1724 1725 1873 1874 1875 1879 1880 1881 2257 2258 2259 2263 2264 2265 2455 2456 2457
919 920 921 1540 1541 1542 1543 1544 1545 1636 1637 1638 1639 1640 1641 1696 1697 1698 1699 1700 1701 1720 1721 1722 1723 1724 1725 1873 1874 1875 1879 1880 1881 2257 2258 2259 2263 2264 2265 2455 2456 2457
922 923 924 1537 1538 1539 1546 1547 1548 1633 1634 1635 1642 1643 1644 1693 1694 1695 1702 1703 1704 1717 1718 1719 1726 1727 1728 1876 1877 1878 1882 1883 1884 2260 2261 2262 2266 2267 2268 2458 2459 2460
922 923 924 1537 1538 1539 1546 1547 1548 1633 1634 1635 1642 1643 1644 1693 1694 1695 1702 1703 1704 1717 1718 1719 1726 1727 1728 1876 1877 1878 1882 1883 1884 2260 2261 2262 2266 2267 2268 2458 2459 2460
922 923 924 1537 1538 1539 1546 1547 1548 1633 1634 1635 1642 1643 1644 1693 1694 1695 1702 1703 1704 1717 1718 1719 1726 1727 1728 1876 1877 1878 1882 1883 1884 2260 2261 2262 2266 2267 2268 2458 2459 2460
925 926 927 1549 1550 1551 1558 1559 1560 1645 1646 1647 1654 1655 1656 1681 1682 1683 1690 1691 1692 1705 1706 1707 1714 1715 1716 1885 1886 1887 1891 1892 1893 2269 2270 2271 2275 2276 2277 2461 2462 2463
925 926 927 1549 1550 1551 1558 1559 1560 1645 1646 1647 1654 1655 1656 1681 1682 1683 1690 1691 1692 1705 1706 1707 1714 1715 1716 1885 1886 1887 1891 1892 1893 2269 2270 2271 2275 2276 2277 2461 2462 2463
925 926 927 1549 1550 1551 1558 1559 1560 1645 1646 1647 1654 1655 1656 1681 1682 1683 1690 1691 1692 1705 1706 1707 1714 1715 1716 1885 1886 1887 1891 1892 1893 2269 2270 2271 2275 2276 2277 2461 2462 2463
928 929 930 1552 1553 1554 1555 1556 1557 1648 1649 1650 1651 1652 1653 1684 1685 1686 1687 1688 1689 1708 1709 1710 1711 1712 1713 1888 1889 1890 1894 1895 1896 2272 2273 2274 2278 2279 2280 2464 2465 2466
928 929 930 1552 1553 1554 1555 1556 1557 1648 1649 1650 1651 1652 1653 1684 1685 1686 1687 1688 1689 1708 1709 1710 1711 1712 1713 1888 1889 1890 1894 1895 1896 2272 2273 2274 2278 2279 2280 2464 2465 2466
928 929 930 1552 1553 1554 1555 1556 1557 1648 1649 1650 1651 1652 1653 1684 1685 1686 1687 1688 1689 1708 1709 1710 1711 1712 1713 1888 1889 1890 1894 1895 1896 2272 2273 2274 2278 2279 2280 2464 2465 2466
931 932 933 1552 1553 1554 1555 1556 1557 1648 1649 1650 1651 1652 1653 1684 1685 1686 1687 1688 1689 1708 1709 1710 1711 1712 1713 1885 1886 1887 1891 1892 1893 2269 2270 2271 2275 2276 2277 2467 2468 2469
931 932 933 1552 1553 1554 1555 1556 1557 1648 1649 1650 1651 1652 1653 1684 1685 1686 1687 1688 1689 1708 1709 1710 1711 1712 1713 1885 1886 1887 1891 1892 1893 2269 2270 2271 2275 2276 2277 2467 2468 2469
931 932 933 1552 1553 1554 1555 1556 1557 1648 1649 1650 1651 1652 1653 1684 1685 1686 1687 1688 1689 1708 1709 1710 1711 1712 1713 1885 1886 1887 1891 1892 1893 2269 2270 2271 2275 2276 2277 2467 2468 2469
934 935 936 1549 1550 1551 1558 1559 1560 1645 1646 1647 1654 1655 1656 1681 1682 1683 1690 1691 1692 1705 1706 1707 1714 1715 1716 1888 1889 1890 1894 1895 1896 2272 2273 2274 2278 2279 2280 2470 2471 2472
934 935 936 1549 1550 1551 1558 1559 1560 1645 1646 1647 1654 1655 1656 1681 1682 1683 1690 1691 1692 1705 1706 1707 1714 1715 1716 1888 1889 1890 1894 1895 1896 2272 2273 2274 2278 2279 2280 2470 2471 2472
934 935 936 1549 1550 1551 1558 1559 1560 1645 1646 1647 1654 1655 1656 1681 1682 1683 1690 1691 1692 1705 1706 1707 1714 1715 1716 1888 1889 1890 1894 1895 1896 2272 2273 2274 2278 2279 2280 2470 2471 2472
937 938 939 1561 1562 1563 1570 1571 1572 1657 1658 1659 1666 1667 1668 1693 1694 1695 1702 1703 1704 1717 1718 1719 1726 1727 1728 1897 1898 1899 1903 1904 1905 2281 2282 2283 2287 2288 2289 2473 2474 2475
937 938 939 1561 1562 1563 1570 1571 1572 1657 1658 1659 1666 1667 1668 1693 1694 1695 1702 1703 1704 1717 1718 1719 1726 1727 1728 1897 1898 1899 1903 1904 1905 2281 2282 2283 2287 2288 2289 2473 2474 2475
937 938 939 1561 1562 1563 1570 1571 1572 1657 1658 1659 1666 1667 1668 1693 1694 1695 1702 1703 1704 1717 1718 1719 1726 1727 1728 1897 1898 1899 1903 1904 1905 2281 2282 2283 2287 2288 2289 2473 2474 2475
940 941 942 1564 1565 1566 1567 1568 1569 1660 1661 1662 1663 1664 1665 1696 1697 1698 1699 1700 1701 1720 1721 1722 1723 1724 1725 1900 1901 1902 1906 1907 1908 2284 2285 2286 2290 2291 2292 2476 2477 2478
940 941 942 1564 1565 1566 1567 1568 1569 1660 1661 1662 1663 1664 1665 1696 1697 1698 1699 1700 1701 1720 1721 1722 1723 1724 1725 1900 1901 1902 1906 1907 1908 2284 2285 2286 2290 2291 2292 2476 2477 2478
940 941 942 1564 1565 1566 1567 1568 1569 1660 1661 1662 1663 1664 1665 1696 1697 1698 1699 1700 1701 1720 1721 1722 1723 1724 1725 1900 1901 1902 1906 1907 1908 2284 2285 2286 2290 2291 2292 2476 2477 2478
943 944 945 1564 1565 1566 1567 1568 1569 1660 1661 1662 1663 1664 1665 1696 1697 1698 1699 1700 1701 1720 1721 1722 1723 1724 1725 1897 1898 1899 1903 1904 1905 2281 2282 2283 2287 2288 2289 2479 2480 2481
943 944 945 1564 1565 1566 1567 1568 1569 1660 1661 1662 1663 1664 1665 1696 1697 1698 1699 1700 1701 1720 1721 1722 1723 1724 1725 1897 1898 1899 1903 1904 1905 2281 2282 2283 2287 2288 2289 2479 2480 2481
943 944 945 1564 1565 1566 1567 1568 1569 1660 1661 1662 1663 1664 1665 1696 1697 1698 1699 1700 1701 1720 1721 1722 1723 1724 1725 1897 1898 1899 1903 1904 1905 2281 2282 2283 2287 2288 2289 2479 2480 2481
946 947 948 1561 1562 1563 1570 1571 1572 1657 1658 1659 1666 1667 1668 1693 1694 1695 1702 1703 1704 1717 1718 1719 1726 1727 1728 1900 1901 1902 1906 1907 1908 2284 2285 2286 2290 2291 2292 2482 2483 2484
946 947 948 1561 1562 1563 1570 1571 1572 1657 1658 1659 1666 1667 1668 1693 1694 1695 1702 1703 1704 1717 1718 1719 1726 1727 1728 1900 1901 1902 1906 1907 1908 2284 2285 2286 2290 2291 2292 2482 2483 2484
946 947 948 1561 1562 1563 1570 1571 1572 1657 1658 1659 1666 1667 1668 1693 1694 1695 1702 1703 1704 1717 1718 1719 1726 1727 1728 1900 1901 1902 1906 1907 1908 2284 2285 2286 2290 2291 2292 2482 2483 2484
949 950 951 1573 1574 1575 1582 1583 1584 1669 1670 1671 1678 1679 1680 1681 1682 1683 1690 1691 1692 1705 1706 1707 1714 1715 1716 1909 1910 1911 1915 1916 1917 2293 2294 2295 2299 2300 2301 2485 2486 2487
949 950 951 1573 1574 1575 1582 1583 1584 1669 1670 1671 1678 1679 1680 1681 1682 1683 1690 1691 1692 1705 1706 1707 1714 1715 1716 1909 1910 1911 1915 1916 1917 2293 2294 2295 2299 2300 2301 2485 2486 2487
949 950 951 1573 1574 1575 1582 1583 1584 1669 1670 1671 1678 1679 1680 1681 1682 1683 1690 1691 1692 1705 1706 1707 1714 1715 1716 1909 1910 1911 1915 1916 1917 2293 2294 2295 2299 2300 2301 2485 2486 2487
952 953 954 1576 1577 1578 1579 1580 1581 1672 1673 1674 1675 1676 1677 1684 1685 1686 1687 1688 1689 1708 1709 1710 1711 1712 1713 1912 1913 1914 1918 1919 1920 2296 2297 2298 2302 2303 2304 2488 2489 2490
952 953 954 1576 1577 1578 1579 1580 1581 1672 1673 1674 1675 1676 1677 1684 1685 1686 1687 1688 1689 1708 1709 1710 1711 1712 1713 1912 1913 1914 1918 1919 1920 2296 2297 2298 2302 2303 2304 2488 2489 2490
952 953 954 1576 1577 1578 1579 1580 1581 1672 1673 1674 1675 1676 1677 1684 1685 1686 1687 1688 1689 1708 1709 1710 1711 1712 1713 1912 1913 1914 1918 1919 1920 2296 2297 2298 2302 2303 2304 2488 2489 2490
955 956 957 1576 1577 1578 1579 1580 1581 1672 1673 1674 1675 1676 1677 1684 1685 1686 1687 1688 1689 1708 1709 1710 1711 1712 1713 1909 1910 1911 1915 1916 1917 2293 2294 2295 2299 2300 2301 2491 2492 2493
955 956 957 1576 1577 1578 1579 1580 1581 1672 1673 1674 1675 1676 1677 1684 1685 1686 1687 1688 1689 1708 1709 1710 1711 1712 1713 1909 1910 1911 1915 1916 1917 2293 2294 2295 2299 2300 2301 2491 2492 2493
955 956 957 1576 1577 1578 1579 1580 1581 1672 1673 1674 1675 1676 1677 1684 1685 1686 1687 1688 1689 1708 1709 1710 1711 1712 1713 1909 1910 1911 1915 1916 1917 2293 2294 2295 2299 2300 2301 2491 2492 2493
958 959 960 1573 1574 1575 1582 1583 1584 1669 1670 1671 1678 1679 1680 1681 1682 1683 1690 1691 1692 1705 1706 1707 1714 1715 1716 1912 1913 1914 1918 1919 1920 2296 2297 2298 2302 2303 2304 2494 2495 2496
958 959 960 1573 1574 1575 1582 1583 1584 1669 1670 1671 1678 1679 1680 1681 1682 1683 1690 1691 1692 1705 1706 1707 1714 1715 1716 1912 1913 1914 1918 1919 1920 2296 2297 2298 2302 2303 2304 2494 2495 2496
958 959 960 1573 1574 1575 1582 1583 1584 1669 1670 1671 1678 1679 1680 1681 1682 1683 1690 1691 1692 1705 1706 1707 1714 1715 1716 1912 1913 1914 1918 1919 1920 2296 2297 2298 2302 2303 2304 2494 2495 2496
961 962 963 1537 1538 1539 1543 1544 1545 1741 1742 1743 1750 1751 1752 1765 1766 1767 1774 1775 1776 1777 1778 1779 1786 1787 1788 1873 1874 1875 1882 1883 1884 1921 1922 1923 1927 1928 1929 2497 2498 2499
961 962 963 1537 1538 1539 1543 1544 1545 1741 1742 1743 1750 1751 1752 1765 1766 1767 1774 1775 1776 1777 1778 1779 1786 1787 1788 1873 1874 1875 1882 1883 1884 1921 1922 1923 1927 1928 1929 2497 2498 2499
961 962 963 1537 1538 1539 1543 1544 1545 1741 1742 1743 1750 1751 1752 1765 1766 1767 1774 1775 1776 1777 1778 1779 1786 1787 1788 1873 1874 1875 1882 1883 1884 1921 1922 1923 1927 1928 1929 2497 2498 2499
964 965 966 1540 1541 1542 1546 1547 1548 1744 1745 1746 1747 1748 1749 1768 1769 1770 1771 1772 1773 1780 1781 1782 1783 1784 1785 1876 1877 1878 1879 1880 1881 1924 1925 1926 1930 1931 1932 2500 2501 2502
964 965 966 1540 1541 1542 1546 1547 1548 1744 1745 1746 1747 1748 1749 1768 1769 1770 1771 1772 1773 1780 1781 1782 1783 1784 1785 1876 1877 1878 1879 1880 1881 1924 1925 1926 1930 1931 1932 2500 2501 2502
964 965 966 1540 1541 1542 1546 1547 1548 1744 1745 1746 1747 1748 1749 1768 1769 1770 1771 1772 1773 1780 1781 1782 1783 1784 1785 1876 1877 1878 1879 1880 1881 1924 1925 1926 1930 1931 1932 2500 2501 2502
967 968 969 1537 1538 1539 1543 1544 1545 1744 1745 1746 1747 1748 1749 1768 1769 1770 1771 1772 1773 1780 1781 1782 1783 1784 1785 1876 1877 1878 1879 1880 1881 1921 1922 1923 1927 1928 1929 2503 2504 2505
967 968 969 1537 1538 1539 1543 1544 1545 1744 1745 1746 1747 1748 1749 1768 1769 1770 1771 1772 1773 1780 1781 1782 1783 1784 1785 1876 1877 1878 1879 1880 1881 1921 1922 1923 1927 1928 1929 2503 2504 2505
967 968 969 1537 1538 1539 1543 1544 1545 1744 1745 1746 1747 1748 1749 1768 1769 1770 1771 1772 1773 1780 1781 1782 1783 1784 1785 1876 1877 1878 1879 1880 1881 1921 1922 1923 1927 1928 1929 2503 2504 2505
970 971 972 1540 1541 1542 1546 1547 1548 1741 1742 1743 1750 1751 1752 1765 1766 1767 1774 1775 1776 1777 1778 1779 1786 1787 1788 1873 1874 1875 1882 1883 1884 1924 1925 1926 1930 1931 1932 2506 2507 2508
970 971 972 1540 1541 1542 1546 1547 1548 1741 1742 1743 1750 1751 1752 1765 1766 1767 1774 1775 1776 1777 1778 1779 1786 1787 1788 1873 1874 1875 1882 1883 1884 1924 1925 1926 1930 1931 1932 2506 2507 2508
970 971 972 1540 1541 1542 1546 1547 1548 1741 1742 1743 1750 1751 1752 1765 1766 1767 1774 1775 1776 1777 1778 1779 1786 1787 1788 1873 1874 1875 1882 1883 1884 1924 1925 1926 1930 1931 1932 2506 2507 2508
973 974 975 1549 1550 1551 1555 1556 1557 1729 1730 1731 1738 1739 1740 1753 1754 1755 1762 1763 1764 1789 1790 1791 1798 1799 1800 1885 1886 1887 1894 1895 1896 1933 1934 1935 1939 1940 1941 2509 2510 2511
973 974 975 1549 1550 1551 1555 1556 1557 1729 1730 1731 1738 1739 1740 1753 1754 1755 1762 1763 1764 1789 1790 1791 1798 1799 1800 1885 1886 1887 1894 1895 1896 1933 1934 1935 1939 1940 1941 2509 2510 2511
973 974 975 1549 1550 1551 1555 1556 1557 1729 1730 1731 1738 1739 1740 1753 1754 1755 1762 1763 1764 1789 1790 1791 1798 1799 1800 1885 1886 1887 1894 1895 1896 1933 1934 1935 1939 1940 1941 2509 2510 2511
976 977 978 1552 1553 1554 1558 1559 1560 1732 1733 1734 1735 1736 1737 1756 1757 1758 1759 1760 1761 1792 1793 1794 1795 1796 1797 1888 1889 1890 1891 1892 1893 1936 1937 1938 1942 1943 1944 2512 2513 2514
976 977 978 1552 1553 1554 1558 1559 1560 1732 1733 1734 1735 1736 1737 1756 1757 1758 1759 1760 1761 1792 1793 1794 1795 1796 1797 1888 1889 1890 1891 1892 1893 1936 1937 1938 1942 1943 1944 2512 2513 2514
976 977 978 1552 1553 1554 1558 1559 1560 1732 1733 1734 1735 1736 1737 1756 1757 1758 1759 1760 1761 1792 1793 1794 1795 1796 1797 1888 1889 1890 1891 1892 1893 1936 1937 1938 1942 1943 1944 2512 2513 2514
979 980 981 1549 1550 1551 1555 1556 1557 1732 1733 1734 1735 1736 1737 1756 1757 1758 1759 1760 1761 1792 1793 1794 1795 1796 1797 1888 1889 1890 1891 1892 1893 1933 1934 1935 1939 1940 1941 2515 2516 2517
979 980 981 1549 1550 1551 1555 1556 1557 1732 1733 1734 1735 1736 1737 1756 1757 1758 1759 1760 1761 1792 1793 1794 1795 1796 1797 1888 1889 1890 1891 1892 1893 1933 1934 1935 1939 1940 1941 2515 2516 2517
979 980 981 1549 1550 1551 1555 1556 1557 1732 1733 1734 1735 1736 1737 1756 1757 1758 1759 1760 1761 1792 1793 1794 1795 1796 1797 1888 1889 1890 1891 1892 1893 1933 1934 1935 1939 1940 1941 2515 2516 2517
982 983 984 1552 1553 1554 1558 1559 1560 1729 1730 1731 1738 1739 1740 1753 1754 1755 1762 1763 1764 1789 1790 1791 1798 1799 1800 1885 1886 1887 1894 1895 1896 1936 1937 1938 1942 1943 1944 2518 2519 2520
982 983 984 1552 1553 1554 1558 1559 1560 1729 1730 1731 1738 1739 1740 1753 1754 1755 1762 1763 1764 1789 1790 1791 1798 1799 1800 1885 1886 1887 1894 1895 1896 1936 1937 1938 1942 1943 1944 2518 2519 2520
982 983 984 1552 1553 1554 1558 1559 1560 1729 1730 1731 1738 1739 1740 1753 1754 1755 1762 1763 1764 1789 1790 1791 1798 1799 1800 1885 1886 1887 1894 1895 1896 1936 1937 1938 1942 1943 1944 2518 2519 2520
985 986 987 1561 1562 1563 1567 1568 1569 1741 1742 1743 1750 1751 1752 1765 1766 1767 1774 1775 1776 1801 1802 1803 1810 1811 1812 1897 1898 1899 1906 1907 1908 1945 1946 1947 1951 1952 1953 2521 2522 2523
985 986 987 1561 1562 1563 1567 1568 1569 1741 1742 1743 1750 1751 1752 1765 1766 1767 1774 1775 1776 1801 1802 1803 1810 1811 1812 1897 1898 1899 1906 1907 1908 1945 1946 1947 1951 1952 1953 2521 2522 2523
985 986 987 1561 1562 1563 1567 1568 1569 1741 1742 1743 1750 1751 1752 1765 1766 1767 1774 1775 1776 1801 1802 1803 1810 1811 1812 1897 1898 1899 1906 1907 1908 1945 1946 1947 1951 1952 1953 2521 2522 2523
988 989 990 1564 1565 1566 1570 1571 1572 1744 1745 1746 1747 1748 1749 1768 1769 1770 1771 1772 1773 1804 1805 1806 1807 1808 1809 1900 1901 1902 1903 1904 1905 1948 1949 1950 1954 1955 1956 2524 2525 2526
988 989 990 1564 1565 1566 1570 1571 1572 1744 1745 1746 1747 1748 1749 1768 1769 1770 1771 1772 1773 1804 1805 1806 1807 1808 1809 1900 1901 1902 1903 1904 1905 1948 1949 1950 1954 1955 1956 2524 2525 2526
988 989 990 1564 1565 1566 1570 1571 1572 1744 1745 1746 1747 1748 1749 1768 1769 1770 1771 1772 1773 1804 1805 1806 1807 1808 1809 1900 1901 1902 1903 1904 1905 1948 1949 1950 1954 1955 1956 2524 2525 2526
991 992 993 1561 1562 1563 1567 1568 1569 1744 1745 1746 1747 1748 1749 1768 1769 1770 1771 1772 1773 1804 1805 1806 1807 1808 1809 1900 1901 1902 1903 1904 1905 1945 1946 1947 1951 1952 1953 2527 2528 2529
991 992 993 1561 1562 1563 1567 1568 1569 1744 1745 1746 1747 1748 1749 1768 1769 1770 1771 1772 1773 1804 1805 1806 1807 1808 1809 1900 1901 1902 1903 1904 1905 1945 1946 1947 1951 1952 1953 2527 2528 2529
991 992 993 1561 1562 1563 1567 1568 1569 1744 1745 1746 1747 1748 1749 1768 1769 1770 1771 1772 1773 1804 1805 1806 1807 1808 1809 1900 1901 1902 1903 1904 1905 1945 1946 1947 1951 1952 1953 2527 2528 2529
994 995 996 1564 1565 1566 1570 1571 1572 1741 1742 1743 1750 1751 1752 1765 1766 1767 1774 1775 1776 1801 1802 1803 1810 1811 1812 1897 1898 1899 1906 1907 1908 1948 1949 1950 1954 1955 1956 2530 2531 2532
994 995 996 1564 1565 1566 1570 1571 1572 1741 1742 1743 1750 1751 1752 1765 1766 1767 1774 1775 1776 1801 1802 1803 1810 1811 1812 1897 1898 1899 1906 1907 1908 1948 1949 1950 1954 1955 1956 2530 2531 2532
994 995 996 1564 1565 1566 1570 1571 1572 1741 1742 1743 1750 1751 1752 1765 1766 1767 1774 1775 1776 1801 1802 1803 1810 1811 1812 1897 1898 1899 1906 1907 1908 1948 1949 1950 1954 1955 1956 2530 2531 2532
997 998 999 1573 1574 1575 1579 1580 1581 1729 1730 1731 1738 1739 1740 1753 1754 1755 1762 1763 1764 1813 1814 1815 1822 1823 1824 1909 1910 1911 1918 1919 1920 1957 1958 1959 1963 1964 1965 2533 2534 2535
997 998 999 1573 1574 1575 1579 1580 1581 1729 1730 1731 1738 1739 1740 1753 1754 1755 1762 1763 1764 1813 1814 1815 1822 1823 1824 1909 1910 1911 1918 1919 1920 1957 1958 1959 1963 1964 1965 2533 2534 2535
997 998 999 1573 1574 1575 1579 1580 1581 1729 1730 1731 1738 1739 1740 1753 1754 1755 1762 1763 1764 1813 1814 1815 1822 1823 1824 1909 1910 1911 1918 1919 1920 1957 1958 1959 1963 1964 1965 2533 2534 2535
1000 1001 1002 1576 1577 1578 1582 1583 1584 1732 1733 1734 1735 1736 1737 1756 1757 1758 1759 1760 1761 1816 1817 1818 1819 1820 1821 1912 1913 1914 1915 1916 1917 1960 1961 1962 1966 1967 1968 2536 2537 2538
1000 1001 1002 1576 1577 1578 1582 1583 1584 1732 1733 1734 1735 1736 1737 1756 1757 1758 1759 1760 1761 1816 1817 1818 1819 1820 1821 1912 1913 1914 1915 1916 1917 1960 1961 1962 1966 1967 1968 2536 2537 2538
1000 1001 1002 1576 1577 1578 1582 1583 1584 1732 1733 1734 1735 1736 1737 1756 1757 1758 1759 1760 1761 1816 1817 1818 1819 1820 1821 1912 1913 1914 1915 1916 1917 1960 1961 1962 1966 1967 1968 2536 2537 2538
1003 1004 1005 1573 1574 1575 1579 1580 1581 1732 1733 1734 1735 1736 1737 1756 1757 1758 1759 1760 1761 1816 1817 1818 1819 1820 1821 1912 1913 1914 1915 1916 1917 1957 1958 1959 1963 1964 1965 2539 2540 2541
1003 1004 1005 1573 1574 1575 1579 1580 1581 1732 1733 1734 1735 1736 1737 1756 1757 1758 1759 1760 1761 1816 1817 1818 1819 1820 1821 1912 1913 1914 1915 1916 1917 1957 1958 1959 1963 1964 1965 2539 2540 2541
1003 1004 1005 1573 1574 1575 1579 1580 1581 1732 1733 1734 1735 1736 1737 1756 1757 1758 1759 1760 1761 1816 1817 1818 1819 1820 1821 1912 1913 1914 1915 1916 1917 1957 1958 1959 1963 1964 1965 2539 2540 2541
1006 1007 1008 1576 1577 1578 1582 1583 1584 1729 1730 1731 1738 1739 1740 1753 1754 1755 1762 1763 1764 1813 1814 1815 1822 1823 1824 1909 1910 1911 1918 1919 1920 1960 1961 1962 1966 1967 1968 2542 2543 2544
1006 1007 1008 1576 1577 1578 1582 1583 1584 1729 1730 1731 1738 1739 1740 1753 1754 1755 1762 1763 1764 1813 1814 1815 1822 1823 1824 1909 1910 1911 1918 1919 1920 1960 1961 1962 1966 1967 1968 2542 2543 2544
1006 1007 1008 1576 1577 1578 1582 1583 1584 1729 1730 1731 1738 1739 1740 1753 1754 1755 1762 1763 1764 1813 1814 1815 1822 1823 1824 1909 1910 1911 1918 1919 1920 1960 1961 1962 1966 1967 1968 2542 2543 2544
1009 1010 1011 1585 1586 1587 1591 1592 1593 1729 1730 1731 1738 1739 1740 1789 1790 1791 1798 1799 1800 1813 1814 1815 1822 1823 1824 1825 1826 1827 1834 1835 1836 1969 1970 1971 1975 1976 1977 2545 2546 2547
1009 1010 1011 1585 1586 1587 1591 1592 1593 1729 1730 1731 1738 1739 1740 1789 1790 1791 1798 1799 1800 1813 1814 1815 1822 1823 1824 1825 1826 1827 1834 1835 1836 1969 1970 1971 1975 1976 1977 2545 2546 2547
1009 1010 1011 1585 1586 1587 1591 1592 1593 1729 1730 1731 1738 1739 1740 1789 1790 1791 1798 1799 1800 1813 1814 1815 1822 1823 1824 1825 1826 1827 1834 1835 1836 1969 1970 1971 1975 1976 1977 2545 2546 2547
1012 1013 1014 1588 1589 1590 1594 1595 1596 1732 1733 1734 1735 1736 1737 1792 1793 1794 1795 1796 1797 1816 1817 1818 1819 1820 1821 1828 1829 1830 1831 1832 1833 1972 1973 1974 1978 1979 1980 2548 2549 2550
1012 1013 1014 1588 1589 1590 1594 1595 1596 1732 1733 1734 1735 1736 1737 1792 1793 1794 1795 1796 1797 1816 1817 1818 1819 1820 1821 1828 1829 1830 1831 1832 1833 1972 1973 1974 1978 1979 1980 2548 2549 2550
1012 1013 1014 1588 1589 1590 1594 1595 1596 1732 1733 1734 1735 1736 1737 1792 1793 1794 1795 1796 1797 1816 1817 1818 1819 1820 1821 1828 1829 1830 1831 1832 1833 1972 1973 1974 1978 1979 1980 2548 2549 2550
1015 1016 1017 1585 1586 1587 1591 1592 1593 1732 1733 1734 1735 1736 1737 1792 1793 1794 1795 1796 1797 1816 1817 1818 1819 1820 1821 1828 1829 1830 1831 1832 1833 1969 1970 1971 1975 1976 1977 2551 2552 2553
1015 1016 1017 1585 1586 1587 1591 1592 1593 1732 1733 1734 1735 1736 1737 1792 1793 1794 1795 1796 1797 1816 1817 1818 1819 1820 1821 1828 1829 1830 1831 1832 1833 1969 1970 1971 1975 1976 1977 2551 2552 2553
1015 1016 1017 1585 1586 1587 1591 1592 1593 1732 1733 1734 1735 1736 1737 1792 1793 1794 1795 1796 1797 1816 1817 1818 1819 1820 1821 1828 1829 1830 1831 1832 1833 1969 1970 1971 1975 1976 1977 2551 2552 2553
1018 1019 1020 1588 1589 1590 1594 1595 1596 1729 1730 1731 1738 1739 1740 1789 1790 1791 1798 1799 1800 1813 1814 1815 1822 1823 1824 1825 1826 1827 1834 1835 1836 1972 1973 1974 1978 1979 1980 2554 2555 2556
1018 1019 1020 1588 1589 1590 1594 1595 1596 1729 1730 1731 1738 1739 1740 1789 1790 1791 1798 1799 1800 1813 1814 1815 1822 1823 1824 1825 1826 1827 1834 1835 1836 1972 1973 1974 1978 1979 1980 2554 2555 2556
1018 1019 1020 1588 1589 1590 1594 1595 1596 1729 1730 1731 1738 1739 1740 1789 1790 1791 1798 1799 1800 1813 1814 1815 1822 1823 1824 1825 1826 1827 1834 1835 1836 1972 1973 1974 1978 1979 1980 2554 2555 2556
1021 1022 1023 1597 1598 1599 1603 1604 1605 1741 1742 1743 1750 1751 1752 1777 1778 1779 1786 1787 1788 1801 1802 1803 1810 1811 1812 1837 1838 1839 1846 1847 1848 1981 1982 1983 1987 1988 1989 2557 2558 2559
1021 1022 1023 1597 1598 1599 1603 1604 1605 1741 1742 1743 1750 1751 1752 1777 1778 1779 1786 1787 1788 1801 1802 1803 1810 1811 1812 1837 1838 1839 1846 1847 1848 1981 1982 1983 1987 1988 1989 2557 2558 2559
1021 1022 1023 1597 1598 1599 1603 1604 1605 1741 1742 1743 1750 1751 1752 1777 1778 1779 1786 1787 1788 1801 1802 1803 1810 1811 1812 1837 1838 1839 1846 1847 1848 1981 1982 1983 1987 1988 1989 2557 2558 2559
1024 1025 1026 1600 1601 1602 1606 1607 1608 1744 1745 1746 1747 1748 1749 1780 1781 1782 1783 1784 1785 1804 1805 1806 1807 1808 1809 1840 1841 1842 1843 1844 1845 1984 1985 1986 1990 1991 1992 2560 2561 2562
1024 1025 1026 1600 1601 1602 1606 1607 1608 1744 1745 1746 1747 1748 1749 1780 1781 1782 1783 1784 1785 1804 1805 1806 1807 1808 1809 1840 1841 1842 1843 1844 1845 1984 1985 1986 1990 1991 1992 2560 2561 2562
1024 1025 1026 1600 1601 1602 1606 1607 1608 1744 1745 1746 1747 1748 1749 1780 1781 1782 1783 1784 1785 1804 1805 1806 1807 1808 1809 1840 1841 1842 1843 1844 1845 1984 1985 1986 1990 1991 1992 2560 2561 2562
1027 1028 1029 1597 1598 1599 1603 1604 1605 1744 1745 1746 1747 1748 1749 1780 1781 1782 1783 1784 1785 1804 1805 1806 1807 1808 1809 1840 1841 1842 1843 1844 1845 1981 1982 1983 1987 1988 1989 2563 2564 2565
1027 1028 1029 1597 1598 1599 1603 1604 1605 1744 1745 1746 1747 1748 1749 1780 1781 1782 1783 1784 1785 1804 1805 1806 1807 1808 1809 1840 1841 1842 1843 1844 1845 1981 1982 1983 1987 1988 1989 2563 2564 2565
1027 1028 1029 1597 1598 1599 1603 1604 1605 1744 1745 1746 1747 1748 1749 1780 1781 1782 1783 1784 1785 1804 1805 1806 1807 1808 1809 1840 1841 1842 1843 1844 1845 1981 1982 1983 1987 1988 1989 2563 2564 2565
1030 1031 1032 1600 1601 1602 1606 1607 1608 1741 1742 1743 1750 1751 1752 1777 1778 1779 1786 1787 1788 1801 1802 1803 1810 1811 1812 1837 1838 1839 1846 1847 1848 1984 1985 1986 1990 1991 1992 2566 2567 2568
1030 1031 1032 1600 1601 1602 1606 1607 1608 1741 1742 1743 1750 1751 1752 1777 1778 1779 1786 1787 1788 1801 1802 1803 1810 1811 1812 1837 1838 1839 1846 1847 1848 1984 1985 1986 1990 1991 1992 2566 2567 2568
1030 1031 1032 1600 1601 1602 1606 1607 1608 1741 1742 1743 1750 1751 1752 1777 1778 1779 1786 1787 1788 1801 1802 1803 1810 1811 1812 1837 1838 1839 1846 1847 1848 1984 1985 1986 1990 1991 1992 2566 2567 2568
1033 1034 1035 1609 1610 1611 1615 1616 1617 1753 1754 1755 1762 1763 1764 1789 1790 1791 1798 1799 1800 1813 1814 1815 1822 1823 1824 1849 1850 1851 1858 1859 1860 1993 1994 1995 1999 2000 2001 2569 2570 2571
1033 1034 1035 1609 1610 1611 1615 1616 1617 1753 1754 1755 1762 1763 1764 1789 1790 1791 1798 1799 1800 1813 1814 1815 1822 1823 1824 1849 1850 1851 1858 1859 1860 1993 1994 1995 1999 2000 2001 2569 2570 2571
1033 1034 1035 1609 1610 1611 1615 1616 1617 1753 1754 1755 1762 1763 1764 1789 1790 1791 1798 1799 1800 1813 1814 1815 1822 1823 1824 1849 1850 1851 1858 1859 1860 1993 1994 1995 1999 2000 2001 2569 2570 2571
1036 1037 1038 1612 1613 1614 1618 1619 1620 1756 1757 1758 1759 1760 1761 1792 1793 1794 1795 1796 1797 1816 1817 1818 1819 1820 1821 1852 1853 1854 1855 1856 1857 1996 1997 1998 2002 2003 2004 2572 2573 2574
1036 1037 1038 1612 1613 1614 1618 1619 1620 1756 1757 1758 1759 1760 1761 1792 1793 1794 1795 1796 1797 1816 1817 1818 1819 1820 1821 1852 1853 1854 1855 1856 1857 1996 1997 1998 2002 2003 2004 2572 2573 2574
1036 1037 1038 1612 1613 1614 1618 1619 1620 1756 1757 1758 1759 1760 1761 1792 1793 1794 1795 1796 1797 1816 1817 1818 1819 1820 1821 1852 1853 1854 1855 1856 1857 1996 1997 1998 2002 2003 2004 2572 2573 2574
1039 1040 1041 1609 1610 1611 1615 1616 1617 1756 1757 1758 1759 1760 1761 1792 1793 1794 1795 1796 1797 1816 1817 1818 1819 1820 1821 1852 1853 1854 1855 1856 1857 1993 1994 1995 1999 2000 2001 2575 2576 2577
1039 1040 1041 1609 1610 1611 1615 1616 1617 1756 1757 1758 1759 1760 1761 1792 1793 1794 1795 1796 1797 1816 1817 1818 1819 1820 1821 1852 1853 1854 1855 1856 1857 1993 1994 1995 1999 2000 2001 2575 2576 2577
1039 1040 1041 1609 1610 1611 1615 1616 1617 1756 1757 1758 1759 1760 1761 1792 1793 1794 1795 1796 1797 1816 1817 1818 1819 1820 1821 1852 1853 1854 1855 1856 1857 1993 1994 1995 1999 2000 2001 2575 2576 2577
1042 1043 1044 1612 1613 1614 1618 1619 1620 1753 1754 1755 1762 1763 1764 1789 1790 1791 1798 1799 1800 1813 1814 1815 1822 1823 1824 1849 1850 1851 1858 1859 1860 1996 1997 1998 2002 2003 2004 2578 2579 2580
1042 1043 1044 1612 1613 1614 1618 1619 1620 1753 1754 1755 1762 1763 1764 1789 1790 1791 1798 1799 1800 1813 1814 1815 1822 1823 1824 1849 1850 1851 1858 1859 1860 1996 1997 1998 2002 2003 2004 2578 2579 2580
1042 1043 1044 1612 1613 1614 1618 1619 1620 1753 1754 1755 1762 1763 1764 1789 1790 1791 1798 1799 1800 1813 1814 1815 1822 1823 1824 1849 1850 1851 1858 1859 1860 1996 1997 1998 2002 2003 2004 2578 2579 2580
1045 1046 1047 1621 1622 1623 1627 1628 1629 1765 1766 1767 1774 1775 1776 1777 1778 1779 1786 1787 1788 1801 1802 1803 1810 1811 1812 1861 1862 1863 1870 1871 1872 2005 2006 2007 2011 2012 2013 2581 2582 2583
1045 1046 1047 1621 1622 1623 1627 1628 1629 1765 1766 1767 1774 1775 1776 1777 1778 1779 1786 1787 1788 1801 1802 1803 1810 1811 1812 1861 1862 1863 1870 1871 1872 2005 2006 2007 2011 2012 2013 2581 2582 2583
1045 1046 1047 1621 1622 1623 1627 1628 1629 1765 1766 1767 1774 1775 1776 1777 1778 1779 1786 1787 1788 1801 1802 1803 1810 1811 1812 1861 1862 1863 1870 1871 1872 2005 2006 2007 2011 2012 2013 2581 2582 2583
1048 1049 1050 1624 1625 1626 1630 1631 1632 1768 1769 1770 1771 1772 1773 1780 1781 1782 1783 1784 1785 1804 1805 1806 1807 1808 1809 1864 1865 1866 1867 1868 1869 2008 2009 2010 2014 2015 2016 2584 2585 2586
1048 1049 1050 1624 1625 1626 1630 1631 1632 1768 1769 1770 1771 1772 1773 1780 1781 1782 1783 1784 1785 1804 1805 1806 1807 1808 1809 1864 1865 1866 1867 1868 1869 2008 2009 2010 2014 2015 2016 2584 2585 2586
1048 1049 1050 1624 1625 1626 1630 1631 1632 1768 1769 1770 1771 1772 1773 1780 1781 1782 1783 1784 1785 1804 1805 1806 1807 1808 1809 1864 1865 1866 1867 1868 1869 2008 2009 2010 2014 2015 2016 2584 2585 2586
1051 1052 1053 1621 1622 1623 1627 1628 1629 1768 1769 1770 1771 1772 1773 1780 1781 1782 1783 1784 1785 1804 1805 1806 1807 1808 1809 1864 1865 1866 1867 1868 1869 2005 2006 2007 2011 2012 2013 2587 2588 2589
1051 1052 1053 1621 1622 1623 1627 1628 1629 1768 1769 1770 1771 1772 1773 1780 1781 1782 1783 1784 1785 1804 1805 1806 1807 1808 1809 1864 1865 1866 1867 1868 1869 2005 2006 2007 2011 2012 2013 2587 2588 2589
1051 1052 1053 1621 1622 1623 1627 1628 1629 1768 1769 1770 1771 1772 1773 1780 1781 1782 1783 1784 1785 1804 1805 1806 1807 1808 1809 1864 1865 1866 1867 1868 1869 2005 2006 2007 2011 2012 2013 2587 2588 2589
1054 1055 1056 1624 1625 1626 1630 1631 1632 1765 1766 1767 1774 1775 1776 1777 1778 1779 1786 1787 1788 1801 1802 1803 1810 1811 1812 1861 1862 1863 1870 1871 1872 2008 2009 2010 2014 2015 2016 2590 2591 2592
1054 1055 1056 1624 1625 1626 1630 1631 1632 1765 1766 1767 1774 1775 1776 1777 1778 1779 1786 1787 1788 1801 1802 1803 1810 1811 1812 1861 1862 1863 1870 1871 1872 2008 2009 2010 2014 2015 2016 2590 2591 2592
1054 1055 1056 1624 1625 1626 1630 1631 1632 1765 1766 1767 1774 1775 1776 1777 1778 1779 1786 1787 1788 1801 1802 1803 1810 1811 1812 1861 1862 1863 1870 1871 1872 2008 2009 2010 2014 2015 2016 2590 2591 2592
1057 1058 1059 1633 1634 1635 1639 1640 1641 1777 1778 1779 1786 1787 1788 1837 1838 1839 1846 1847 1848 1861 1862 1863 1870 1871 1872 1873 1874 1875 1882 1883 1884 2017 2018 2019 2023 2024 2025 2593 2594 2595
1057 1058 1059 1633 1634 1635 1639 1640 1641 1777 1778 1779 1786 1787 1788 1837 1838 1839 1846 1847 1848 1861 1862 1863 1870 1871 1872 1873 1874 1875 1882 1883 1884 2017 2018 2019 2023 2024 2025 2593 2594 2595
1057 1058 1059 1633 1634 1635 1639 1640 1641 1777 1778 1779 1786 1787 1788 1837 1838 1839 1846 1847 1848 1861 1862 1863 1870 1871 1872 1873 1874 1875 1882 1883 1884 2017 2018 2019 2023 2024 2025 2593 2594 2595
1060 1061 1062 1636 1637 1638 1642 1643 1644 1780 1781 1782 1783 1784 1785 1840 1841 1842 1843 1844 1845 1864 1865 1866 1867 1868 1869 1876 1877 1878 1879 1880 1881 2020 2021 2022 2026 2027 2028 2596 2597 2598
1060 1061 1062 1636 1637 1638 1642 1643 1644 1780 1781 1782 1783 1784 1785 1840 1841 1842 1843 1844 1845 1864 1865 1866 1867 1868 1869 1876 1877 1878 1879 1880 1881 2020 2021 2022 2026 2027 2028 2596 2597 2598
1060 1061 1062 1636 1637 1638 1642 1643 1644 1780 1781 1782 1783 1784 1785 1840 1841 1842 1843 1844 1845 1864 1865 1866 1867 1868 1869 1876 1877 1878 1879 1880 1881 2020 2021 2022 2026 2027 2028 2596 2597 2598
1063 1064 1065 1633 1634 1635 1639 1640 1641 1780 1781 1782 1783 1784 1785 1840 1841 1842 1843 1844 1845 1864 1865 1866 1867 1868 1869 1876 1877 1878 1879 1880 1881 2017 2018 2019 2023 2024 2025 2599 2600 2601
1063 1064 1065 1633 1634 1635 1639 1640 1641 1780 1781 1782 1783 1784 1785 1840 1841 1842 1843 1844 1845 1864 1865 1866 1867 1868 1869 1876 1877 1878 1879 1880 1881 2017 2018 2019 2023 2024 2025 2599 2600 2601
1063 1064 1065 1633 1634 1635 1639 1640 1641 1780 1781 1782 1783 1784 1785 1840 1841 1842 1843 1844 1845 1864 1865 1866 1867 1868 1869 1876 1877 1878 1879 1880 1881 2017 2018 2019 2023 2024 2025 2599 2600 2601
1066 1067 1068 1636 1637 1638 1642 1643 1644 1777 1778 1779 1786 1787 1788 1837 1838 1839 1846 1847 1848 1861 1862 1863 1870 1871 1872 1873 1874 1875 1882 1883 1884 2020 2021 2022 2026 2027 2028 2602 2603 2604
1066 1067 1068 1636 1637 1638 1642 1643 1644 1777 1778 1779 1786 1787 1788 1837 1838 1839 1846 1847 1848 1861 1862 1863 1870 1871 1872 1873 1874 1875 1882 1883 1884 2020 2021 2022 2026 2027 2028 2602 2603 2604
1066 1067 1068 1636 1637 1638 1642 1643 1644 1777 1778 1779 1786 1787 1788 1837 1838 1839 1846 1847 1848 1861 1862 1863 1870 1871 1872 1873 1874 1875 1882 1883 1884 2020 2021 2022 2026 2027 2028 2602 2603 2604
1069 1070 1071 1645 1646 1647 1651 1652 1653 1789 1790 1791 1798 1799 1800 1825 1826 1827 1834 1835 1836 1849 1850 1851 1858 1859 1860 1885 1886 1887 1894 1895 1896 2029 2030 2031 2035 2036 2037 2605 2606 2607
1069 1070 1071 1645 1646 1647 1651 1652 1653 1789 1790 1791 1798 1799 1800 1825 1826 1827 1834 1835 1836 1849 1850 1851 1858 1859 1860 1885 1886 1887 1894 1895 1896 2029 2030 2031 2035 2036 2037 2605 2606 2607
1069 1070 1071 1645 1646 1647 1651 1652 1653 1789 1790 1791 1798 1799 1800 1825 1826 1827 1834 1835 1836 1849 1850 1851 1858 1859 1860 1885 1886 1887 1894 1895 1896 2029 2030 2031 2035 2036 2037 2605 2606 2607
1072 1073 1074 1648 1649 1650 1654 1655 1656 1792 1793 1794 1795 1796 1797 1828 1829 1830 1831 1832 1833 1852 1853 1854 1855 1856 1857 1888 1889 1890 1891 1892 1893 2032 2033 2034 2038 2039 2040 2608 2609 2610
1072 1073 1074 1648 1649 1650 1654 1655 1656 1792 1793 1794 1795 1796 1797 1828 1829 1830 1831 1832 1833 1852 1853 1854 1855 1856 1857 1888 1889 1890 1891 1892 1893 2032 2033 2034 2038 2039 2040 2608 2609 2610
1072 1073 1074 1648 1649 1650 1654 1655 1656 1792 1793 1794 1795 1796 1797 1828 1829 1830 1831 1832 1833 1852 1853 1854 1855 1856 1857 1888 1889 1890 1891 1892 1893 2032 2033 2034 2038 2039 2040 2608 2609 2610
1075 1076 1077 1645 1646 1647 1651 1652 1653 1792 1793 1794 1795 1796 1797 1828 1829 1830 1831 1832 1833 1852 1853 1854 1855 1856 1857 1888 1889 1890 1891 1892 1893 2029 2030 2031 2035 2036 2037 2611 2612 2613
1075 1076 1077 1645 1646 1647 1651 1652 1653 1792 1793 1794 1795 1796 1797 1828 1829 1830 1831 1832 1833 1852 1853 1854 1855 1856 1857 1888 1889 1890 1891 1892 1893 2029 2030 2031 2035 2036 2037 2611 2612 2613
1075 1076 1077 1645 1646 1647 1651 1652 1653 1792 1793 1794 1795 1796 1797 1828 1829 1830 1831 1832 1833 1852 1853 1854 1855 1856 1857 1888 1889 1890 1891 1892 1893 2029 2030 2031 2035 2036 2037 2611 2612 2613
1078 1079 1080 1648 1649 1650 1654 1655 1656 1789 1790 1791 1798 1799 1800 1825 1826 1827 1834 1835 1836 1849 1850 1851 1858 1859 1860 1885 1886 1887 1894 1895 1896 2032 2033 2034 2038 2039 2040 2614 2615 2616
1078 1079 1080 1648 1649 1650 1654 1655 1656 1789 1790 1791 1798 1799 1800 1825 1826 1827 1834 1835 1836 1849 1850 1851 1858 1859 1860 1885 1886 1887 1894 1895 1896 2032 2033 2034 2038 2039 2040 2614 2615 2616
1078 1079 1080 1648 1649 1650 1654 1655 1656 1789 1790 1791 1798 1799 1800 1825 1826 1827 1834 1835 1836 1849 1850 1851 1858 1859 1860 1885 1886 1887 1894 1895 1896 2032 2033 2034 2038 2039 2040 2614 2615 2616
1081 1082 1083 1657 1658 1659 1663 1664 1665 1801 1802 1803 1810 1811 1812 1837 1838 1839 1846 1847 1848 1861 1862 1863 1870 1871 1872 1897 1898 1899 1906 1907 1908 2041 2042 2043 2047 2048 2049 2617 2618 2619
1081 1082 1083 1657 1658 1659 1663 1664 1665 1801 1802 1803 1810 1811 1812 1837 1838 1839 1846 1847 1848 1861 1862 1863 1870 1871 1872 1897 1898 1899 1906 1907 1908 2041 2042 2043 2047 2048 2049 2617 2618 2619
1081 1082 1083 1657 1658 1659 1663 1664 1665 1801 1802 1803 1810 1811 1812 1837 1838 1839 1846 1847 1848 1861 1862 1863 1870 1871 1872 1897 1898 1899 1906 1907 1908 2041 2042 2043 2047 2048 2049 2617 2618 2619
1084 1085 1086 1660 1661 1662 1666 1667 1668 1804 1805 1806 1807 1808 1809 1840 1841 1842 1843 1844 1845 1864 1865 1866 1867 1868 1869 1900 1901 1902 1903 1904 1905 2044 2045 2046 2050 2051 2052 2620 2621 2622
1084 1085 1086 1660 1661 1662 1666 1667 1668 1804 1805 1806 1807 1808 1809 1840 1841 1842 1843 1844 1845 1864 1865 1866 1867 1868 1869 1900 1901 1902 1903 1904 1905 2044 2045 2046 2050 2051 2052 2620 2621 2622
1084 1085 1086 1660 1661 1662 1666 1667 1668 1804 1805 1806 1807 1808 1809 1840 1841 1842 1843 1844 1845 1864 1865 1866 1867 1868 1869 1900 1901 1902 1903 1904 1905 2044 2045 2046 2050 2051 2052 2620 2621 2622
1087 1088 1089 1657 1658 1659 1663 1664 1665 1804 1805 1806 1807 1808 1809 1840 1841 1842 1843 1844 1845 1864 1865 1866 1867 1868 1869 1900 1901 1902 1903 1904 1905 2041 2042 2043 2047 2048 2049 2623 2624 2625
1087 1088 1089 1657 1658 1659 1663 1664 1665 1804 1805 1806 1807 1808 1809 1840 1841 1842 1843 1844 1845 1864 1865 1866 1867 1868 1869 1900 1901 1902 1903 1904 1905 2041 2042 2043 2047 2048 2049 2623 2624 2625
1087 1088 1089 1657 1658 1659 1663 1664 1665 1804 1805 1806 1807 1808 1809 1840 1841 1842 1843 1844 1845 1864 1865 1866 1867 1868 1869 1900 1901 1902 1903 1904 1905 2041 2042 2043 2047 2048 2049 2623 2624 2625
1090 1091 1092 1660 1661 1662 1666 1667 1668 1801 1802 1803 1810 1811 1812 1837 1838 1839 1846 1847 1848 1861 1862 1863 1870 1871 1872 1897 1898 1899 1906 1907 1908 2044 2045 2046 2050 2051 2052 2626 2627 2628
1090 1091 1092 1660 1661 1662 1666 1667 1668 1801 1802 1803 1810 1811 1812 1837 1838 1839 1846 1847 1848 1861 1862 1863 1870 1871 1872 1897 1898 1899 1906 1907 1908 2044 2045 2046 2050 2051 2052 2626 2627 2628
1090 1091 1092 1660 1661 1662 1666 1667 1668 1801 1802 1803 1810 1811 1812 1837 1838 1839 1846 1847 1848 1861 1862 1863 1870 1871 1872 1897 1898 1899 1906 1907 1908 2044 2045 2046 2050 2051 2052 2626 2627 2628
1093 1094 1095 1669 1670 1671 1675 1676 1677 1813 1814 1815 1822 1823 1824 1825 1826 1827 1834 1835 1836 1849 1850 1851 1858 1859 1860 1909 1910 1911 1918 1919 1920 2053 2054 2055 2059 2060 2061 2629 2630 2631
1093 1094 1095 1669 1670 1671 1675 1676 1677 1813 1814 1815 1822 1823 1824 1825 1826 1827 1834 1835 1836 1849 1850 1851 1858 1859 1860 1909 1910 1911 1918 1919 1920 2053 2054 2055 2059 2060 2061 2629 2630 2631
1093 1094 1095 1669 1670 1671 1675 1676 1677 1813 1814 1815 1822 1823 1824 1825 1826 1827 1834 1835 1836 1849 1850 1851 1858 1859 1860 1909 1910 1911 1918 1919 1920 2053 2054 2055 2059 2060 2061 2629 2630 2631
1096 1097 1098 1672 1673 1674 1678 1679 1680 1816 1817 1818 1819 1820 1821 1828 1829 1830 1831 1832 1833 1852 1853 1854 1855 1856 1857 1912 1913 1914 1915 1916 1917 2056 2057 2058 2062 2063 2064 2632 2633 2634
1096 1097 1098 1672 1673 1674 1678 1679 1680 1816 1817 1818 1819 1820 1821 1828 1829 1830 1831 1832 1833 1852 1853 1854 1855 1856 1857 1912 1913 1914 1915 1916 1917 2056 2057 2058 2062 2063 2064 2632 2633 2634
1096 1097 1098 1672 1673 1674 1678 1679 1680 1816 1817 1818 1819 1820 1821 1828 1829 1830 1831 1832 1833 1852 1853 1854 1855 1856 1857 1912 1913 1914 1915 1916 1917 2056 2057 2058 2062 2063 2064 2632 2633 2634
1099 1100 1101 1669 1670 1671 1675 1676 1677 1816 1817 1818 1819 1820 1821 1828 1829 1830 1831 1832 1833 1852 1853 1854 1855 1856 1857 1912 1913 1914 1915 1916 1917 2053 2054 2055 2059 2060 2061 2635 2636 2637
1099 1100 1101 1669 1670 1671 1675 1676 1677 1816 1817 1818 1819 1820 1821 1828 1829 1830 1831 1832 1833 1852 1853 1854 1855 1856 1857 1912 1913 1914 1915 1916 1917 2053 2054 2055 2059 2060 2061 2635 2636 2637
1099 1100 1101 1669 1670 1671 1675 1676 1677 1816 1817 1818 1819 1820 1821 1828 1829 1830 1831 1832 1833 1852 1853 1854 1855 1856 1857 1912 1913 1914 1915 1916 1917 2053 2054 2055 2059 2060 2061 2635 2636 2637
1102 1103 1104 1672 1673 1674 1678 1679 1680 1813 1814 1815 1822 1823 1824 1825 1826 1827 1834 1835 1836 1849 1850 1851 1858 1859 1860 1909 1910 1911 1918 1919 1920 2056 2057 2058 2062 2063 2064 2638 2639 2640
1102 1103 1104 1672 1673 1674 1678 1679 1680 1813 1814 1815 1822 1823 1824 1825 1826 1827 1834 1835 1836 1849 1850 1851 1858 1859 1860 1909 1910 1911 1918 1919 1920 2056 2057 2058 2062 2063 2064 2638 2639 2640
1102 1103 1104 1672 1673 1674 1678 1679 1680 1813 1814 1815 1822 1823 1824 1825 1826 1827 1834 1835 1836 1849 1850 1851 1858 1859 1860 1909 1910 1911 1918 1919 1920 2056 2057 2058 2062 2063 2064 2638 2639 2640
1105 1106 1107 1681 1682 1683 1687 1688 1689 1729 1730 1731 1738 1739 1740 1825 1826 1827 1834 1835 1836 1885 1886 1887 1894 1895 1896 1909 1910 1911 1918 1919 1920 2065 2066 2067 2071 2072 2073 2641 2642 2643
1105 1106 1107 1681 1682 1683 1687 1688 1689 1729 1730 1731 1738 1739 1740 1825 1826 1827 1834 1835 1836 1885 1886 1887 1894 1895 1896 1909 1910 1911 1918 1919 1920 2065 2066 2067 2071 2072 2073 2641 2642 2643
1105 1106 1107 1681 1682 1683 1687 1688 1689 1729 1730 1731 1738 1739 1740 1825 1826 1827 1834 1835 1836 1885 1886 1887 1894 1895 1896 1909 1910 1911 1918 1919 1920 2065 2066 2067 2071 2072 2073 2641 2642 2643
1108 1109 1110 1684 1685 1686 1690 1691 1692 1732 1733 1734 1735 1736 1737 1828 1829 1830 1831 1832 1833 1888 1889 1890 1891 1892 1893 1912 1913 1914 1915 1916 1917 2068 2069 2070 2074 2075 2076 2644 2645 2646
1108 1109 1110 1684 1685 1686 1690 1691 1692 1732 1733 1734 1735 1736 1737 1828 1829 1830 1831 1832 1833 1888 1889 1890 1891 1892 1893 1912 1913 1914 1915 1916 1917 2068 2069 2070 2074 2075 2076 2644 2645 2646
1108 1109 1110 1684 1685 1686 1690 1691 1692 1732 1733 1734 1735 1736 1737 1828 1829 1830 1831 1832 1833 1888 1889 1890 1891 1892 1893 1912 1913 1914 1915 1916 1917 2068 2069 2070 2074 2075 2076 2644 2645 2646
1111 1112 1113 1681 1682 1683 1687 1688 1689 1732 1733 1734 1735 1736 1737 1828 1829 1830 1831 1832 1833 1888 1889 1890 1891 1892 1893 1912 1913 1914 1915 1916 1917 2065 2066 2067 2071 2072 2073 2647 2648 2649
1111 1112 1113 1681 1682 1683 1687 1688 1689 1732 1733 1734 1735 1736 1737 1828 1829 1830 1831 1832 1833 1888 1889 1890 1891 1892 1893 1912 1913 1914 1915 1916 1917 2065 2066 2067 2071 2072 2073 2647 2648 2649
1111 1112 1113 1681 1682 1683 1687 1688 1689 1732 1733 1734 1735 1736 1737 1828 1829 1830 1831 1832 1833 1888 1889 1890 1891 1892 1893 1912 1913 1914 1915 1916 1917 2065 2066 2067 2071 2072 2073 2647 2648 2649
1114 1115 1116 1684 1685 1686 1690 1691 1692 1729 1730 1731 1738 1739 1740 1825 1826 1827 1834 1835 1836 1885 1886 1887 1894 1895 1896 1909 1910 1911 1918 1919 1920 2068 2069 2070 2074 2075 2076 2650 2651 2652
1114 1115 1116 1684 1685 1686 1690 1691 1692 1729 1730 1731 1738 1739 1740 1825 1826 1827 1834 1835 1836 1885 1886 1887 1894 1895 1896 1909 1910 1911 1918 1919 1920 2068 2069 2070 2074 2075 2076 2650 2651 2652
1114 1115 1116 1684 1685 1686 1690 1691 1692 1729 1730 1731 1738 1739 1740 1825 1826 1827 1834 1835 1836 1885 1886 1887 1894 1895 1896 1909 1910 1911 1918 1919 1920 2068 2069 2070 2074 2075 2076 2650 2651 2652
1117 1118 1119 1693 1694 1695 1699 1700 1701 1741 1742 1743 1750 1751 1752 1837 1838 1839 1846 1847 1848 1873 1874 1875 1882 1883 1884 1897 1898 1899 1906 1907 1908 2077 2078 2079 2083 2084 2085 2653 2654 2655
1117 1118 1119 1693 1694 1695 1699 1700 1701 1741 1742 1743 1750 1751 1752 1837 1838 1839 1846 1847 1848 1873 1874 1875 1882 1883 1884 1897 1898 1899 1906 1907 1908 2077 2078 2079 2083 2084 2085 2653 2654 2655
1117 1118 1119 1693 1694 1695 1699 1700 1701 1741 1742 1743 1750 1751 1752 1837 1838 1839 1846 1847 1848 1873 1874 1875 1882 1883 1884 1897 1898 1899 1906 1907 1908 2077 2078 2079 2083 2084 2085 2653 2654 2655
1120 1121 1122 1696 1697 1698 1702 1703 1704 1744 1745 1746 1747 1748 1749 1840 1841 1842 1843 1844 1845 1876 1877 1878 1879 1880 1881 1900 1901 1902 1903 1904 1905 2080 2081 2082 2086 2087 2088 2656 2657 2658
1120 1121 1122 1696 1697 1698 1702 1703 1704 1744 1745 1746 1747 1748 1749 1840 1841 1842 1843 1844 1845 1876 1877 1878 1879 1880 1881 1900 1901 1902 1903 1904 1905 2080 2081 2082 2086 2087 2088 2656 2657 2658
1120 1121 1122 1696 1697 1698 1702 1703 1704 1744 1745 1746 1747 1748 1749 1840 1841 1842 1843 1844 1845 1876 1877 1878 1879 1880 1881 1900 1901 1902 1903 1904 1905 2080 2081 2082 2086 2087 2088 2656 2657 2658
1123 1124 1125 1693 1694 1695 1699 1700 1701 1744 1745 1746 1747 1748 1749 1840 1841 1842 1843 1844 1845 1876 1877 1878 1879 1880 1881 1900 1901 1902 1903 1904 1905 2077 2078 2079 2083 2084 2085 2659 2660 2661
1123 1124 1125 1693 1694 1695 1699 1700 1701 1744 1745 1746 1747 1748 1749 1840 1841 1842 1843 1844 1845 1876 1877 1878 1879 1880 1881 1900 1901 1902 1903 1904 1905 2077 2078 2079 2083 2084 2085 2659 2660 2661
1123 1124 1125 1693 1694 1695 1699 1700 1701 1744 1745 1746 1747 1748 1749 1840 1841 1842 1843 1844 1845 1876 1877 1878 1879 1880 1881 1900 1901 1902 1903 1904 1905 2077 2078 2079 2083 2084 2085 2659 2660 2661
1126 1127 1128 1696 1697 1698 1702 1703 1704 1741 1742 1743 1750 1751 1752 1837 1838 1839 1846 1847 1848 1873 1874 1875 1882 1883 1884 1897 1898 1899 1906 1907 1908 2080 2081 2082 2086 2087 2088 2662 2663 2664
1126 1127 1128 1696 1697 1698 1702 1703 1704 1741 1742 1743 1750 1751 1752 1837 1838 1839 1846 1847 1848 1873 1874 1875 1882 1883 1884 1897 1898 1899 1906 1907 1908 2080 2081 2082 2086 2087 2088 2662 2663 2664
1126 1127 1128 1696 1697 1698 1702 1703 1704 1741 1742 1743 1750 1751 1752 1837 1838 1839 1846 1847 1848 1873 1874 1875 1882 1883 1884 1897 1898 1899 1906 1907 1908 2080 2081 2082 2086 2087 2088 2662 2663 2664
1129 1130 1131 1705 1706 1707 1711 1712 1713 1753 1754 1755 1762 1763 1764 1849 1850 1851 1858 1859 1860 1885 1886 1887 1894 1895 1896 1909 1910 1911 1918 1919 1920 2089 2090 2091 2095 2096 2097 2665 2666 2667
1129 1130 1131 1705 1706 1707 1711 1712 1713 1753 1754 1755 1762 1763 1764 1849 1850 1851 1858 1859 1860 1885 1886 1887 1894 1895 1896 1909 1910 1911 1918 1919 1920 2089 2090 2091 2095 2096 2097 2665 2666 2667
1129 1130 1131 1705 1706 1707 1711 1712 1713 1753 1754 1755 1762 1763 1764 1849 1850 1851 1858 1859 1860 1885 1886 1887 1894 1895 1896 1909 1910 1911 1918 1919 1920 2089 2090 2091 2095 2096 2097 2665 2666 2667
1132 1133 1134 1708 1709 1710 1714 1715 1716 1756 1757 1758 1759 1760 1761 1852 1853 1854 1855 1856 1857 1888 1889 1890 1891 1892 1893 1912 1913 1914 1915 1916 1917 2092 2093 2094 2098 2099 2100 2668 2669 2670
1132 1133 1134 1708 1709 1710 1714 1715 1716 1756 1757 1758 1759 1760 1761 1852 1853 1854 1855 1856 1857 1888 1889 1890 1891 1892 1893 1912 1913 1914 1915 1916 1917 2092 2093 2094 2098 2099 2100 2668 2669 2670
1132 1133 1134 1708 1709 1710 1714 1715 1716 1756 1757 1758 1759 1760 1761 1852 1853 1854 1855 1856 1857 1888 1889 1890 1891 1892 1893 1912 1913 1914 1915 1916 1917 2092 2093 2094 2098 2099 2100 2668 2669 2670
1135 1136 1137 1705 1706 1707 1711 1712 1713 1756 1757 1758 1759 1760 1761 1852 1853 1854 1855 1856 1857 1888 1889 1890 1891 1892 1893 1912 1913 1914 1915 1916 1917 2089 2090 2091 2095 2096 2097 2671 2672 2673
1135 1136 1137 1705 1706 1707 1711 1712 1713 1756 1757 1758 1759 1760 1761 1852 1853 1854 1855 1856 1857 1888 1889 1890 1891 1892 1893 1912 1913 1914 1915 1916 1917 2089 2090 2091 2095 2096 2097 2671 2672 2673
1135 1136 1137 1705 1706 1707 1711 1712 1713 1756 1757 1758 1759 1760 1761 1852 1853 1854 1855 1856 1857 1888 1889 1890 1891 1892 1893 1912 1913 1914 1915 1916 1917 2089 2090 2091 2095 2096 2097 2671 2672 2673
1138 1139 1140 1708 1709 1710 1714 1715 1716 1753 1754 1755 1762 1763 1764 1849 1850 1851 1858 1859 1860 1885 1886 1887 1894 1895 1896 1909 1910 1911 1918 1919 1920 2092 2093 2094 2098 2099 2100 2674 2675 2676
1138 1139 1140 1708 1709 1710 1714 1715 1716 1753 1754 1755 1762 1763 1764 1849 1850 1851 1858 1859 1860 1885 1886 1887 1894 1895 1896 1909 1910 1911 1918 1919 1920 2092 2093 2094 2098 2099 2100 2674 2675 2676
1138 1139 1140 1708 1709 1710 1714 1715 1716 1753 1754 1755 1762 1763 1764 1849 1850 1851 1858 1859 1860 1885 1886 1887 1894 1895 1896 1909 1910 1911 1918 1919 1920 2092 2093 2094 2098 2099 2100 2674 2675 2676
1141 1142 1143 1717 1718 1719 1723 1724 1725 1765 1766 1767 1774 1775 1776 1861 1862 1863 1870 1871 1872 1873 1874 1875 1882 1883 1884 1897 1898 1899 1906 1907 1908 2101 2102 2103 2107 2108 2109 2677 2678 2679
1141 1142 1143 1717 1718 1719 1723 1724 1725 1765 1766 1767 1774 1775 1776 1861 1862 1863 1870 1871 1872 1873 1874 1875 1882 1883 1884 1897 1898 1899 1906 1907 1908 2101 2102 2103 2107 2108 2109 2677 2678 2679
1141 1142 1143 1717 1718 1719 1723 1724 1725 1765 1766 1767 1774 1775 1776 1861 1862 1863 1870 1871 1872 1873 1874 1875 1882 1883 1884 1897 1898 1899 1906 1907 1908 2101 2102 2103 2107 2108 2109 2677 2678 2679
1144 1145 1146 1720 1721 1722 1726 1727 1728 1768 1769 1770 1771 1772 1773 1864 1865 1866 1867 1868 1869 1876 1877 1878 1879 1880 1881 1900 1901 1902 1903 1904 1905 2104 2105 2106 2110 2111 2112 2680 2681 2682
1144 1145 1146 1720 1721 1722 1726 1727 1728 1768 1769 1770 1771 1772 1773 1864 1865 1866 1867 1868 1869 1876 1877 1878 1879 1880 1881 1900 1901 1902 1903 1904 1905 2104 2105 2106 2110 2111 2112 2680 2681 2682
1144 1145 1146 1720 1721 1722 1726 1727 1728 1768 1769 1770 1771 1772 1773 1864 1865 1866 1867 1868 1869 1876 1877 1878 1879 1880 1881 1900 1901 1902 1903 1904 1905 2104 2105 2106 2110 2111 2112 2680 2681 2682
1147 1148 1149 1717 1718 1719 1723 1724 1725 1768 1769 1770 1771 1772 1773 1864 1865 1866 1867 1868 1869 1876 1877 1878 1879 1880 1881 1900 1901 1902 1903 1904 1905 2101 2102 2103 2107 2108 2109 2683 2684 2685
1147 1148 1149 1717 1718 1719 1723 1724 1725 1768 1769 1770 1771 1772 1773 1864 1865 1866 1867 1868 1869 1876 1877 1878 1879 1880 1881 1900 1901 1902 1903 1904 1905 2101 2102 2103 2107 2108 2109 2683 2684 2685
1147 1148 1149 1717 1718 1719 1723 1724 1725 1768 1769 1770 1771 1772 1773 1864 1865 1866 1867 1868 1869 1876 1877 1878 1879 1880 1881 1900 1901 1902 1903 1904 1905 2101 2102 2103 2107 2108 2109 2683 2684 2685
1150 1151 1152 1720 1721 1722 1726 1727 1728 1765 1766 1767 1774 1775 1776 1861 1862 1863 1870 1871 1872 1873 1874 1875 1882 1883 1884 1897 1898 1899 1906 1907 1908 2104 2105 2106 2110 2111 2112 2686 2687 2688
1150 1151 1152 1720 1721 1722 1726 1727 1728 1765 1766 1767 1774 1775 1776 1861 1862 1863 1870 1871 1872 1873 1874 1875 1882 1883 1884 1897 1898 1899 1906 1907 1908 2104 2105 2106 2110 2111 2112 2686 2687 2688
1150 1151 1152 1720 1721 1722 1726 1727 1728 1765 1766 1767 1774 1775 1776 1861 1862 1863 1870 1871 1872 1873 1874 1875 1882 1883 1884 1897 1898 1899 1906 1907 1908 2104 2105 2106 2110 2111 2112 2686 2687 2688
1153 1154 1155 1729 1730 1731 1735 1736 1737 1933 1934 1935 1942 1943 1944 1957 1958 1959 1966 1967 1968 1969 1970 1971 1978 1979 1980 2065 2066 2067 2074 2075 2076 2113 2114 2115 2119 2120 2121 2689 2690 2691
1153 1154 1155 1729 1730 1731 1735 1736 1737 1933 1934 1935 1942 1943 1944 1957 1958 1959 1966 1967 1968 1969 1970 1971 1978 1979 1980 2065 2066 2067 2074 2075 2076 2113 2114 2115 2119 2120 2121 2689 2690 2691
1153 1154 1155 1729 1730 1731 1735 1736 1737 1933 1934 1935 1942 1943 1944 1957 1958 1959 1966 1967 1968 1969 1970 1971 1978 1979 1980 2065 2066 2067 2074 2075 2076 2113 2114 2115 2119 2120 2121 2689 2690 2691
1156 1157 1158 1732 1733 1734 1738 1739 1740 1936 1937 1938 1939 1940 1941 1960 1961 1962 1963 1964 1965 1972 1973 1974 1975 1976 1977 2068 2069 2070 2071 2072 2073 2116 2117 2118 2122 2123 2124 2692 2693 2694
1156 1157 1158 1732 1733 1734 1738 1739 1740 1936 1937 1938 1939 1940 1941 1960 1961 1962 1963 1964 1965 1972 1973 1974 1975 1976 1977 2068 2069 2070 2071 2072 2073 2116 2117 2118 2122 2123 2124 2692 2693 2694
1156 1157 1158 1732 1733 1734 1738 1739 1740 1936 1937 1938 1939 1940 1941 1960 1961 1962 1963 1964 1965 1972 1973 1974 1975 1976 1977 2068 2069 2070 2071 2072 2073 2116 2117 2118 2122 2123 2124 2692 2693 2694
1159 1160 1161 1729 1730 1731 1735 1736 1737 1936 1937 1938 1939 1940 1941 1960 1961 1962 1963 1964 1965 1972 1973 1974 1975 1976 1977 2068 2069 2070 2071 2072 2073 2113 2114 2115 2119 2120 2121 2695 2696 2697
1159 1160 1161 1729 1730 1731 1735 1736 1737 1936 1937 1938 1939 1940 1941 1960 1961 1962 1963 1964 1965 1972 1973 1974 1975 1976 1977 2068 2069 2070 2071 2072 2073 2113 2114 2115 2119 2120 2121 2695 2696 2697
1159 1160 1161 1729 1730 1731 1735 1736 1737 1936 1937 1938 1939 1940 1941 1960 1961 1962 1963 1964 1965 1972 1973 1974 1975 1976 1977 2068 2069 2070 2071 2072 2073 2113 2114 2115 2119 2120 2121 2695 2696 2697
1162 1163 1164 1732 1733 1734 1738 1739 1740 1933 1934 1935 1942 1943 1944 1957 1958 1959 1966 1967 1968 1969 1970 1971 1978 1979 1980 2065 2066 2067 2074 2075 2076 2116 2117 2118 2122 2123 2124 2698 2699 2700
1162 1163 1164 1732 1733 1734 1738 1739 1740 1933 1934 1935 1942 1943 1944 1957 1958 1959 1966 1967 1968 1969 1970 1971 1978 1979 1980 2065 2066 2067 2074 2075 2076 2116 2117 2118 2122 2123 2124 2698 2699 2700
1162 1163 1164 1732 1733 1734 1738 1739 1740 1933 1934 1935 1942 1943 1944 1957 1958 1959 1966 1967 1968 1969 1970 1971 1978 1979 1980 2065 2066 2067 2074 2075 2076 2116 2117 2118 2122 2123 2124 2698 2699 2700
1165 1166 1167 1741 1742 1743 1747 1748 1749 1921 1922 1923 1930 1931 1932 1945 1946 1947 1954 1955 1956 1981 1982 1983 1990 1991 1992 2077 2078 2079 2086 2087 2088 2125 2126 2127 2131 2132 2133 2701 2702 2703
1165 1166 1167 1741 1742 1743 1747 1748 1749 1921 1922 1923 1930 1931 1932 1945 1946 1947 1954 1955 1956 1981 1982 1983 1990 1991 1992 2077 2078 2079 2086 2087 2088 2125 2126 2127 2131 2132 2133 2701 2702 2703
1165 1166 1167 1741 1742 1743 1747 1748 1749 1921 1922 1923 1930 1931 1932 1945 1946 1947 1954 1955 1956 1981 1982 1983 1990 1991 1992 2077 2078 2079 2086 2087 2088 2125 2126 2127 2131 2132 2133 2701 2702 2703
1168 1169 1170 1744 1745 1746 1750 1751 1752 1924 1925 1926 1927 1928 1929 1948 1949 1950 1951 1952 1953 1984 1985 1986 1987 1988 1989 2080 2081 2082 2083 2084 2085 2128 2129 2130 2134 2135 2136 2704 2705 2706
1168 1169 1170 1744 1745 1746 1750 1751 1752 1924 1925 1926 1927 1928 1929 1948 1949 1950 1951 1952 1953 1984 1985 1986 1987 1988 1989 2080 2081 2082 2083 2084 2085 2128 2129 2130 2134 2135 2136 2704 2705 2706
1168 1169 1170 1744 1745 1746 1750 1751 1752 1924 1925 1926 1927 1928 1929 1948 1949 1950 1951 1952 1953 1984 1985 1986 1987 1988 1989 2080 2081 2082 2083 2084 2085 2128 2129 2130 2134 2135 2136 2704 2705 2706
1171 1172 1173 1741 1742 1743 1747 1748 1749 1924 1925 1926 1927 1928 1929 1948 1949 1950 1951 1952 1953 1984 1985 1986 1987 1988 1989 2080 2081 2082 2083 2084 2085 2125 2126 2127 2131 2132 2133 2707 2708 2709
1171 1172 1173 1741 1742 1743 1747 1748 1749 1924 1925 1926 1927 1928 1929 1948 1949 1950 1951 1952 1953 1984 1985 1986 1987 1988 1989 2080 2081 2082 2083 2084 2085 2125 2126 2127 2131 2132 2133 2707 2708 2709
1171 1172 1173 1741 1742 1743 1747 1748 1749 1924 1925 1926 1927 1928 1929 1948 1949 1950 1951 1952 1953 1984 1985 1986 1987 1988 1989 2080 2081 2082 2083 2084 2085 2125 2126 2127 2131 2132 2133 2707 2708 2709
1174 1175 1176 1744 1745 1746 1750 1751 1752 1921 1922 1923 1930 1931 1932 1945 1946 1947 1954 1955 1956 1981 1982 1983 1990 1991 1992 2077 2078 2079 2086 2087 2088 2128 2129 2130 2134 2135 2136 2710 2711 2712
1174 1175 1176 1744 1745 1746 1750 1751 1752 1921 1922 1923 1930 1931 1932 1945 1946 1947 1954 1955 1956 1981 1982 1983 1990 1991 1992 2077 2078 2079 2086 2087 2088 2128 2129 2130 2134 2135 2136 2710 2711 2712
1174 1175 1176 1744 1745 1746 1750 1751 1752 1921 1922 1923 1930 1931 1932 1945 1946 1947 1954 1955 1956 1981 1982 1983 1990 1991 1992 2077 2078 2079 2086 2087 2088 2128 2129 2130 2134 2135 2136 2710 2711 2712
1177 1178 1179 1753 1754 1755 1759 1760 1761 1933 1934 1935 1942 1943 1944 1957 1958 1959 1966 1967 1968 1993 1994 1995 2002 2003 2004 2089 2090 2091 2098 2099 2100 2137 2138 2139 2143 2144 2145 2713 2714 2715
1177 1178 1179 1753 1754 1755 1759 1760 1761 1933 1934 1935 1942 1943 1944 1957 1958 1959 1966 1967 1968 1993 1994 1995 2002 2003 2004 2089 2090 2091 2098 2099 2100 2137 2138 2139 2143 2144 2145 2713 2714 2715
1177 1178 1179 1753 1754 1755 1759 1760 1761 1933 1934 1935 1942 1943 1944 1957 1958 1959 1966 1967 1968 1993 1994 1995 2002 2003 2004 2089 2090 2091 2098 2099 2100 2137 2138 2139 2143 2144 2145 2713 2714 2715
1180 1181 1182 1756 1757 1758 1762 1763 1764 1936 1937 1938 1939 1940 1941 1960 1961 1962 1963 1964 1965 1996 1997 1998 1999 2000 2001 2092 2093 2094 2095 2096 2097 2140 2141 2142 2146 2147 2148 2716 2717 2718
1180 1181 1182 1756 1757 1758 1762 1763 1764 1936 1937 1938 1939 1940 1941 1960 1961 1962 1963 1964 1965 1996 1997 1998 1999 2000 2001 2092 2093 2094 2095 2096 2097 2140 2141 2142 2146 2147 2148 2716 2717 2718
1180 1181 1182 1756 1757 1758 1762 1763 1764 1936 1937 1938 1939 1940 1941 1960 1961 1962 1963 1964 1965 1996 1997 1998 1999 2000 2001 2092 2093 2094 2095 2096 2097 2140 2141 2142 2146 2147 2148 2716 2717 2718
1183 1184 1185 1753 1754 1755 1759 1760 1761 1936 1937 1938 1939 1940 1941 1960 1961 1962 1963 1964 1965 1996 1997 1998 1999 2000 2001 2092 2093 2094 2095 2096 2097 2137 2138 2139 2143 2144 2145 2719 2720 2721
1183 1184 1185 1753 1754 1755 1759 1760 1761 1936 1937 1938 1939 1940 1941 1960 1961 1962 1963 1964 1965 1996 1997 1998 1999 2000 2001 2092 2093 2094 2095 2096 2097 2137 2138 2139 2143 2144 2145 2719 2720 2721
1183 1184 1185 1753 1754 1755 1759 1760 1761 1936 1937 1938 1939 1940 1941 1960 1961 1962 1963 1964 1965 1996 1997 1998 1999 2000 2001 2092 2093 2094 2095 2096 2097 2137 2138 2139 2143 2144 2145 2719 2720 2721
1186 1187 1188 1756 1757 1758 1762 1763 1764 1933 1934 1935 1942 1943 1944 1957 1958 1959 1966 1967 1968 1993 1994 1995 2002 2003 2004 2089 2090 2091 2098 2099 2100 2140 2141 2142 2146 2147 2148 2722 2723 2724
1186 1187 1188 1756 1757 1758 1762 1763 1764 1933 1934 1935 1942 1943 1944 1957 1958 1959 1966 1967 1968 1993 1994 1995 2002 2003 2004 2089 2090 2091 2098 2099 2100 2140 2141 2142 2146 2147 2148 2722 2723 2724
1186 1187 1188 1756 1757 1758 1762 1763 1764 1933 1934 1935 1942 1943 1944 1957 1958 1959 1966 1967 1968 1993 1994 1995 2002 2003 2004 2089 2090 2091 2098 2099 2100 2140 2141 2142 2146 2147 2148 2722 2723 2724
1189 1190 1191 1765 1766 1767 1771 1772 1773 1921 1922 1923 1930 1931 1932 1945 1946 1947 1954 1955 1956 2005 2006 2007 2014 2015 2016 2101 2102 2103 2110 2111 2112 2149 2150 2151 2155 2156 2157 2725 2726 2727
1189 1190 1191 1765 1766 1767 1771 1772 1773 1921 1922 1923 1930 1931 1932 1945 1946 1947 1954 1955 1956 2005 2006 2007 2014 2015 2016 2101 2102 2103 2110 2111 2112 2149 2150 2151 2155 2156 2157 2725 2726 2727
1189 1190 1191 1765 1766 1767 1771 1772 1773 1921 1922 1923 1930 1931 1932 1945 1946 1947 1954 1955 1956 2005 2006 2007 2014 2015 2016 2101 2102 2103 2110 2111 2112 2149 2150 2151 2155 2156 2157 2725 2726 2727
1192 1193 1194 1768 1769 1770 1774 1775 1776 1924 1925 1926 1927 1928 1929 1948 1949 1950 1951 1952 1953 2008 2009 2010 2011 2012 2013 2104 2105 2106 2107 2108 2109 2152 2153 2154 2158 2159 2160 2728 2729 2730
1192 1193 1194 1768 1769 1770 1774 1775 1776 1924 1925 1926 1927 1928 1929 1948 1949 1950 1951 1952 1953 2008 2009 2010 2011 2012 2013 2104 2105 2106 2107 2108 2109 2152 2153 2154 2158 2159 2160 2728 2729 2730
1192 1193 1194 1768 1769 1770 1774 1775 1776 1924 1925 1926 1927 1928 1929 1948 1949 1950 1951 1952 1953 2008 2009 2010 2011 2012 2013 2104 2105 2106 2107 2108 2109 2152 2153 2154 2158 2159 2160 2728 2729 2730
1195 1196 1197 1765 1766 1767 1771 1772 1773 1924 1925 1926 1927 1928 1929 1948 1949 1950 1951 1952 1953 2008 2009 2010 2011 2012 2013 2104 2105 2106 2107 2108 2109 2149 2150 2151 2155 2156 2157 2731 2732 2733
1195 1196 1197 1765 1766 1767 1771 1772 1773 1924 1925 1926 1927 1928 1929 1948 1949 1950 1951 1952 1953 2008 2009 2010 2011 2012 2013 2104 2105 2106 2107 2108 2109 2149 2150 2151 2155 2156 2157 2731 2732 2733
1195 1196 1197 1765 1766 1767 1771 1772 1773 1924 1925 1926 1927 1928 1929 1948 1949 1950 1951 1952 1953 2008 2009 2010 2011 2012 2013 2104 2105 2106 2107 2108 2109 2149 2150 2151 2155 2156 2157 2731 2732 2733
1198 1199 1200 1768 1769 1770 1774 1775 1776 1921 1922 1923 1930 1931 1932 1945 1946 1947 1954 1955 1956 2005 2006 2007 2014 2015 2016 2101 2102 2103 2110 2111 2112 2152 2153 2154 2158 2159 2160 2734 2735 2736
1198 1199 1200 1768 1769 1770 1774 1775 1776 1921 1922 1923 1930 1931 1932 1945 1946 1947 1954 1955 1956 2005 2006 2007 2014 2015 2016 2101 2102 2103 2110 2111 2112 2152 2153 2154 2158 2159 2160 2734 2735 2736
1198 1199 1200 1768 1769 1770 1774 1775 1776 1921 1922 1923 1930 1931 1932 1945 1946 1947 1954 1955 1956 2005 2006 2007 2014 2015 2016 2101 2102 2103 2110 2111 2112 2152 2153 2154 2158 2159 2160 2734 2735 2736
1201 1202 1203 1777 1778 1779 1783 1784 1785 1921 1922 1923 1930 1931 1932 1981 1982 1983 1990 1991 1992 2005 2006 2007 2014 2015 2016 2017 2018 2019 2026 2027 2028 2161 2162 2163 2167 2168 2169 2737 2738 2739
1201 1202 1203 1777 1778 1779 1783 1784 1785 1921 1922 1923 1930 1931 1932 1981 1982 1983 1990 1991 1992 2005 2006 2007 2014 2015 2016 2017 2018 2019 2026 2027 2028 2161 2162 2163 2167 2168 2169 2737 2738 2739
1201 1202 1203 1777 1778 1779 1783 1784 1785 1921 1922 1923 1930 1931 1932 1981 1982 1983 1990 1991 1992 2005 2006 2007 2014 2015 2016 2017 2018 2019 2026 2027 2028 2161 2162 2163 2167 2168 2169 2737 2738 2739
1204 1205 1206 1780 1781 1782 1786 1787 1788 1924 1925 1926 1927 1928 1929 1984 1985 1986 1987 1988 1989 2008 2009 2010 2011 2012 2013 2020 2021 2022 2023 2024 2025 2164 2165 2166 2170 2171 2172 2740 2741 2742
1204 1205 1206 1780 1781 1782 1786 1787 1788 1924 1925 1926 1927 1928 1929 1984 1985 1986 1987 1988 1989 2008 2009 2010 2011 2012 2013 2020 2021 2022 2023 2024 2025 2164 2165 2166 2170 2171 2172 2740 2741 2742
1204 1205 1206 1780 1781 1782 1786 1787 1788 1924 1925 1926 1927 1928 1929 1984 1985 1986 1987 1988 1989 2008 2009 2010 2011 2012 2013 2020 2021 2022 2023 2024 2025 2164 2165 2166 2170 2171 2172 2740 2741 2742
1207 1208 1209 1777 1778 1779 1783 1784 1785 1924 1925 1926 1927 1928 1929 1984 1985 1986 1987 1988 1989 2008 2009 2010 2011 2012 2013 2020 2021 2022 2023 2024 2025 2161 2162 2163 2167 2168 2169 2743 2744 2745
1207 1208 1209 1777 1778 1779 1783 1784 1785 1924 1925 1926 1927 1928 1929 1984 1985 1986 1987 1988 1989 2008 2009 2010 2011 2012 2013 2020 2021 2022 2023 2024 2025 2161 2162 2163 2167 2168 2169 2743 2744 2745
1207 1208 1209 1777 1778 1779 1783 1784 1785 1924 1925 1926 1927 1928 1929 1984 1985 1986 1987 1988 1989 2008 2009 2010 2011 2012 2013 2020 2021 2022 2023 2024 2025 2161 2162 2163 2167 2168 2169 2743 2744 2745
1210 1211 1212 1780 1781 1782 1786 1787 1788 1921 1922 1923 1930 1931 1932 1981 1982 1983 1990 1991 1992 2005 2006 2007 2014 2015 2016 2017 2018 2019 2026 2027 2028 2164 2165 2166 2170 2171 2172 2746 2747 2748
1210 1211 1212 1780 1781 1782 1786 1787 1788 1921 1922 1923 1930 1931 1932 1981 1982 1983 1990 1991 1992 2005 2006 2007 2014 2015 2016 2017 2018 2019 2026 2027 2028 2164 2165 2166 2170 2171 2172 2746 2747 2748
1210 1211 1212 1780 1781 1782 1786 1787 1788 1921 1922 1923 1930 1931 1932 1981 1982 1983 1990 1991 1992 2005 2006 2007 2014 2015 2016 2017 2018 2019 2026 2027 2028 2164 2165 2166 2170 2171 2172 2746 2747 2748
1213 1214 1215 1789 1790 1791 1795 1796 1797 1933 1934 1935 1942 1943 1944 1969 1970 1971 1978 1979 1980 1993 1994 1995 2002 2003 2004 2029 2030 2031 2038 2039 2040 2173 2174 2175 2179 2180 2181 2749 2750 2751
1213 1214 1215 1789 1790 1791 1795 1796 1797 1933 1934 1935 1942 1943 1944 1969 1970 1971 1978 1979 1980 1993 1994 1995 2002 2003 2004 2029 2030 2031 2038 2039 2040 2173 2174 2175 2179 2180 2181 2749 2750 2751
1213 1214 1215 1789 1790 1791 1795 1796 1797 1933 1934 1935 1942 1943 1944 1969 1970 1971 1978 1979 1980 1993 1994 1995 2002 2003 2004 2029 2030 2031 2038 2039 2040 2173 2174 2175 2179 2180 2181 2749 2750 2751
1216 1217 1218 1792 1793 1794 1798 1799 1800 1936 1937 1938 1939 1940 1941 1972 1973 1974 1975 1976 1977 1996 1997 1998 1999 2000 2001 2032 2033 2034 2035 2036 2037 2176 2177 2178 2182 2183 2184 2752 2753 2754
1216 1217 1218 1792 1793 1794 1798 1799 1800 1936 1937 1938 1939 1940 1941 1972 1973 1974 1975 1976 1977 1996 1997 1998 1999 2000 2001 2032 2033 2034 2035 2036 2037 2176 2177 2178 2182 2183 2184 2752 2753 2754
1216 1217 1218 1792 1793 1794 1798 1799 1800 1936 1937 1938 1939 1940 1941 1972 1973 1974 1975 1976 1977 1996 1997 1998 1999 2000 2001 2032 2033 2034 2035 2036 2037 2176 2177 2178 2182 2183 2184 2752 2753 2754
1219 1220 1221 1789 1790 1791 1795 1796 1797 1936 1937 1938 1939 1940 1941 1972 1973 1974 1975 1976 1977 1996 1997 1998 1999 2000 2001 2032 2033 2034 2035 2036 2037 2173 2174 2175 2179 2180 2181 2755 2756 2757
1219 1220 1221 1789 1790 1791 1795 1796 1797 1936 1937 1938 1939 1940 1941 1972 1973 1974 1975 1976 1977 1996 1997 1998 1999 2000 2001 2032 2033 2034 2035 2036 2037 2173 2174 2175 2179 2180 2181 2755 2756 2757
1219 1220 1221 1789 1790 1791 1795 1796 1797 1936 1937 1938 1939 1940 1941 1972 1973 1974 1975 1976 1977 1996 1997 1998 1999 2000 2001 2032 2033 2034 2035 2036 2037 2173 2174 2175 2179 2180 2181 2755 2756 2757
1222 1223 1224 1792 1793 1794 1798 1799 1800 1933 1934 1935 1942 1943 1944 1969 1970 1971 1978 1979 1980 1993 1994 1995 2002 2003 2004 2029 2030 2031 2038 2039 2040 2176 2177 2178 2182 2183 2184 2758 2759 2760
1222 1223 1224 1792 1793 1794 1798 1799 1800 1933 1934 1935 1942 1943 1944 1969 1970 1971 1978 1979 1980 1993 1994 1995 2002 2003 2004 2029 2030 2031 2038 2039 2040 2176 2177 2178 2182 2183 2184 2758 2759 2760
1222 1223 1224 1792 1793 1794 1798 1799 1800 1933 1934 1935 1942 1943 1944 1969 1970 1971 1978 1979 1980 1993 1994 1995 2002 2003 2004 2029 2030 2031 2038 2039 2040 2176 2177 2178 2182 2183 2184 2758 2759 2760
1225 1226 1227 1801 1802 1803 1807 1808 1809 1945 1946 1947 1954 1955 1956 1981 1982 1983 1990 1991 1992 2005 2006 2007 2014 2015 2016 2041 2042 2043 2050 2051 2052 2185 2186 2187 2191 2192 2193 2761 2762 2763
1225 1226 1227 1801 1802 1803 1807 1808 1809 1945 1946 1947 1954 1955 1956 1981 1982 1983 1990 1991 1992 2005 2006 2007 2014 2015 2016 2041 2042 2043 2050 2051 2052 2185 2186 2187 2191 2192 2193 2761 2762 2763
1225 1226 1227 1801 1802 1803 1807 1808 1809 1945 1946 1947 1954 1955 1956 1981 1982 1983 1990 1991 1992 2005 2006 2007 2014 2015 2016 2041 2042 2043 2050 2051 2052 2185 2186 2187 2191 2192 2193 2761 2762 2763
1228 1229 1230 1804 1805 1806 1810 1811 1812 1948 1949 1950 1951 1952 1953 1984 1985 1986 1987 1988 1989 2008 2009 2010 2011 2012 2013 2044 2045 2046 2047 2048 2049 2188 2189 2190 2194 2195 2196 2764 2765 2766
1228 1229 1230 1804 1805 1806 1810 1811 1812 1948 1949 1950 1951 1952 1953 1984 1985 1986 1987 1988 1989 2008 2009 2010 2011 2012 2013 2044 2045 2046 2047 2048 2049 2188 2189 2190 2194 2195 2196 2764 2765 2766
1228 1229 1230 1804 1805 1806 1810 1811 1812 1948 1949 1950 1951 1952 1953 1984 1985 1986 1987 1988 1989 2008 2009 2010 2011 2012 2013 2044 2045 2046 2047 2048 2049 2188 2189 2190 2194 2195 2196 2764 2765 2766
1231 1232 1233 1801 1802 1803 1807 1808 1809 1948 1949 1950 1951 1952 1953 1984 1985 1986 1987 1988 1989 2008 2009 2010 2011 2012 2013 2044 2045 2046 2047 2048 2049 2185 2186 2187 2191 2192 2193 2767 2768 2769
1231 1232 1233 1801 1802 1803 1807 1808 1809 1948 1949 1950 1951 1952 1953 1984 1985 1986 1987 1988 1989 2008 2009 2010 2011 2012 2013 2044 2045 2046 2047 2048 2049 2185 2186 2187 2191 2192 2193 2767 2768 2769
1231 1232 1233 1801 1802 1803 1807 1808 1809 1948 1949 1950 1951 1952 1953 1984 1985 1986 1987 1988 1989 2008 2009 2010 2011 2012 2013 2044 2045 2046 2047 2048 2049 2185 2186 2187 2191 2192 2193 2767 2768 2769
1234 1235 1236 1804 1805 1806 1810 1811 1812 1945 1946 1947 1954 1955 1956 1981 1982 1983 1990 1991 1992 2005 2006 2007 2014 2015 2016 2041 2042 2043 2050 2051 2052 2188 2189 2190 2194 2195 2196 2770 2771 2772
1234 1235 1236 1804 1805 1806 1810 1811 1812 1945 1946 1947 1954 1955 1956 1981 1982 1983 1990 1991 1992 2005 2006 2007 2014 2015 2016 2041 2042 2043 2050 2051 2052 2188 2189 2190 2194 2195 2196 2770 2771 2772
1234 1235 1236 1804 1805 1806 1810 1811 1812 1945 1946 1947 1954 1955 1956 1981 1982 1983 1990 1991 1992 2005 2006 2007 2014 2015 2016 2041 2042 2043 2050 2051 2052 2188 2189 2190 2194 2195 2196 2770 2771 2772
1237 1238 1239 1813 1814 1815 1819 1820 1821 1957 1958 1959 1966 1967 1968 1969 1970 1971 1978 1979 1980 1993 1994 1995 2002 2003 2004 2053 2054 2055 2062 2063 2064 2197 2198 2199 2203 2204 2205 2773 2774 2775
1237 1238 1239 1813 1814 1815 1819 1820 1821 1957 1958 1959 1966 1967 1968 1969 1970 1971 1978 1979 1980 1993 1994 1995 2002 2003 2004 2053 2054 2055 2062 2063 2064 2197 2198 2199 2203 2204 2205 2773 2774 2775
1237 1238 1239 1813 1814 1815 1819 1820 1821 1957 1958 1959 1966 1967 1968 1969 1970 1971 1978 1979 1980 1993 1994 1995 2002 2003 2004 2053 2054 2055 2062 2063 2064 2197 2198 2199 2203 2204 2205 2773 2774 2775
1240 1241 1242 1816 1817 1818 1822 1823 1824 1960 1961 1962 1963 1964 1965 1972 1973 1974 1975 1976 1977 1996 1997 1998 1999 2000 2001 2056 2057 2058 2059 2060 2061 2200 2201 2202 2206 2207 2208 2776 2777 2778
1240 1241 1242 1816 1817 1818 1822 1823 1824 1960 1961 1962 1963 1964 1965 1972 1973 1974 1975 1976 1977 1996 1997 1998 1999 2000 2001 2056 2057 2058 2059 2060 2061 2200 2201 2202 2206 2207 2208 2776 2777 2778
1240 1241 1242 1816 1817 1818 1822 1823 1824 1960 1961 1962 1963 1964 1965 1972 1973 1974 1975 1976 1977 1996 1997 1998 1999 2000 2001 2056 2057 2058 2059 2060 2061 2200 2201 2202 2206 2207 2208 2776 2777 2778
1243 1244 1245 1813 1814 1815 1819 1820 1821 1960 1961 1962 1963 1964 1965 1972 1973 1974 1975 1976 1977 1996 1997 1998 1999 2000 2001 2056 2057 2058 2059 2060 2061 2197 2198 2199 2203 2204 2205 2779 2780 2781
1243 1244 1245 1813 1814 1815 1819 1820 1821 1960 1961 1962 1963 1964 1965 1972 1973 1974 1975 1976 1977 1996 1997 1998 1999 2000 2001 2056 2057 2058 2059 2060 2061 2197 2198 2199 2203 2204 2205 2779 2780 2781
1243 1244 1245 1813 1814 1815 1819 1820 1821 1960 1961 1962 1963 1964 1965 1972 1973 1974 1975 1976 1977 1996 1997 1998 1999 2000 2001 2056 2057 2058 2059 2060 2061 2197 2198 2199 2203 2204 2205 2779 2780 2781
1246 1247 1248 1816 1817 1818 1822 1823 1824 1957 1958 1959 1966 1967 1968 1969 1970 1971 1978 1979 1980 1993 1994 1995 2002 2003 2004 2053 2054 2055 2062 2063 2064 2200 2201 2202 2206 2207 2208 2782 2783 2784
1246 1247 1248 1816 1817 1818 1822 1823 1824 1957 1958 1959 1966 1967 1968 1969 1970 1971 1978 1979 1980 1993 1994 1995 2002 2003 2004 2053 2054 2055 2062 2063 2064 2200 2201 2202 2206 2207 2208 2782 2783 2784
1246 1247 1248 1816 1817 1818 1822 1823 1824 1957 1958 1959 1966 1967 1968 1969 1970 1971 1978 1979 1980 1993 1994 1995 2002 2003 2004 2053 2054 2055 2062 2063 2064 2200 2201 2202 2206 2207 2208 2782 2783 2784
1249 1250 1251 1825 1826 1827 1831 1832 1833 1969 1970 1971 1978 1979 1980 2029 2030 2031 2038 2039 2040 2053 2054 2055 2062 2063 2064 2065 2066 2067 2074 2075 2076 2209 2210 2211 2215 2216 2217 2785 2786 2787
1249 1250 1251 1825 1826 1827 1831 1832 1833 1969 1970 1971 1978 1979 1980 2029 2030 2031 2038 2039 2040 2053 2054 2055 2062 2063 2064 2065 2066 2067 2074 2075 2076 2209 2210 2211 2215 2216 2217 2785 2786 2787
1249 1250 1251 1825 1826 1827 1831 1832 1833 1969 1970 1971 1978 1979 1980 2029 2030 2031 2038 2039 2040 2053 2054 2055 2062 2063 2064 2065 2066 2067 2074 2075 2076 2209 2210 2211 2215 2216 2217 2785 2786 2787
1252 1253 1254 1828 1829 1830 1834 1835 1836 1972 1973 1974 1975 1976 1977 2032 2033 2034 2035 2036 2037 2056 2057 2058 2059 2060 2061 2068 2069 2070 2071 2072 2073 2212 2213 2214 2218 2219 2220 2788 2789 2790
1252 1253 1254 1828 1829 1830 1834 1835 1836 1972 1973 1974 1975 1976 1977 2032 2033 2034 2035 2036 2037 2056 2057 2058 2059 2060 2061 2068 2069 2070 2071 2072 2073 2212 2213 2214 2218 2219 2220 2788 2789 2790
1252 1253 1254 1828 1829 1830 1834 1835 1836 1972 1973 1974 1975 1976 1977 2032 2033 2034 2035 2036 2037 2056 2057 2058 2059 2060 2061 2068 2069 2070 2071 2072 2073 2212 2213 2214 2218 2219 2220 2788 2789 2790
1255 1256 1257 1825 1826 1827 1831 1832 1833 1972 1973 1974 1975 1976 1977 2032 2033 2034 2035 2036 2037 2056 2057 2058 2059 2060 2061 2068 2069 2070 2071 2072 2073 2209 2210 2211 2215 2216 2217 2791 2792 2793
1255 1256 1257 1825 1826 1827 1831 1832 1833 1972 1973 1974 1975 1976 1977 2032 2033 2034 2035 2036 2037 2056 2057 2058 2059 2060 2061 2068 2069 2070 2071 2072 2073 2209 2210 2211 2215 2216 2217 2791 2792 2793
1255 1256 1257 1825 1826 1827 1831 1832 1833 1972 1973 1974 1975 1976 1977 2032 2033 2034 2035 2036 2037 2056 2057 2058 2059 2060 2061 2068 2069 2070 2071 2072 2073 2209 2210 2211 2215 2216 2217 2791 2792 2793
1258 1259 1260 1828 1829 1830 1834 1835 1836 1969 1970 1971 1978 1979 1980 2029 2030 2031 2038 2039 2040 2053 2054 2055 2062 2063 2064 2065 2066 2067 2074 2075 2076 2212 2213 2214 2218 2219 2220 2794 2795 2796
1258 1259 1260 1828 1829 1830 1834 1835 1836 1969 1970 1971 1978 1979 1980 2029 2030 2031 2038 2039 2040 2053 2054 2055 2062 2063 2064 2065 2066 2067 2074 2075 2076 2212 2213 2214 2218 2219 2220 2794 2795 2796
1258 1259 1260 1828 1829 1830 1834 1835 1836 1969 1970 1971 1978 1979 1980 2029 2030 2031 2038 2039 2040 2053 2054 2055 2062 2063 2064 2065 2066 2067 2074 2075 2076 2212 2213 2214 2218 2219 2220 2794 2795 2796
1261 1262 1263 1837 1838 1839 1843 1844 1845 1981 1982 1983 1990 1991 1992 2017 2018 2019 2026 2027 2028 2041 2042 2043 2050 2051 2052 2077 2078 2079 2086 2087 2088 2221 2222 2223 2227 2228 2229 2797 2798 2799
1261 1262 1263 1837 1838 1839 1843 1844 1845 1981 1982 1983 1990 1991 1992 2017 2018 2019 2026 2027 2028 2041 2042 2043 2050 2051 2052 2077 2078 2079 2086 2087 2088 2221 2222 2223 2227 2228 2229 2797 2798 2799
1261 1262 1263 1837 1838 1839 1843 1844 1845 1981 1982 1983 1990 1991 1992 2017 2018 2019 2026 2027 2028 2041 2042 2043 2050 2051 2052 2077 2078 2079 2086 2087 2088 2221 2222 2223 2227 2228 2229 2797 2798 2799
1264 1265 1266 1840 1841 1842 1846 1847 1848 1984 1985 1986 1987 1988 1989 2020 2021 2022 2023 2024 2025 2044 2045 2046 2047 2048 2049 2080 2081 2082 2083 2084 2085 2224 2225 2226 2230 2231 2232 2800 2801 2802
1264 1265 1266 1840 1841 1842 1846 1847 1848 1984 1985 1986 1987 1988 1989 2020 2021 2022 2023 2024 2025 2044 2045 2046 2047 2048 2049 2080 2081 2082 2083 2084 2085 2224 2225 2226 2230 2231 2232 2800 2801 2802
1264 1265 1266 1840 1841 1842 1846 1847 1848 1984 1985 1986 1987 1988 1989 2020 2021 2022 2023 2024 2025 2044 2045 2046 2047 2048 2049 2080 2081 2082 2083 2084 2085 2224 2225 2226 2230 2231 2232 2800 2801 2802
1267 1268 1269 1837 1838 1839 1843 1844 1845 1984 1985 1986 1987 1988 1989 2020 2021 2022 2023 2024 2025 2044 2045 2046 2047 2048 2049 2080 2081 2082 2083 2084 2085 2221 2222 2223 2227 2228 2229 2803 2804 2805
1267 1268 1269 1837 1838 1839 1843 1844 1845 1984 1985 1986 1987 1988 1989 2020 2021 2022 2023 2024 2025 2044 2045 2046 2047 2048 2049 2080 2081 2082 2083 2084 2085 2221 2222 2223 2227 2228 2229 2803 2804 2805
1267 1268 1269 1837 1838 1839 1843 1844 1845 1984 1985 1986 1987 1988 1989 2020 2021 2022 2023 2024 2025 2044 2045 2046 2047 2048 2049 2080 2081 2082 2083 2084 2085 2221 2222 2223 2227 2228 2229 2803 2804 2805
1270 1271 1272 1840 1841 1842 1846 1847 1848 1981 1982 1983 1990 1991 1992 2017 2018 2019 2026 2027 2028 2041 2042 2043 2050 2051 2052 2077 2078 2079 2086 2087 2088 2224 2225 2226 2230 2231 2232 2806 2807 2808
1270 1271 1272 1840 1841 1842 1846 1847 1848 1981 1982 1983 1990 1991 1992 2017 2018 2019 2026 2027 2028 2041 2042 2043 2050 2051 2052 2077 2078 2079 2086 2087 2088 2224 2225 2226 2230 2231 2232 2806 2807 2808
1270 1271 1272 1840 1841 1842 1846 1847 1848 1981 1982 1983 1990 1991 1992 2017 2018 2019 2026 2027 2028 2041 2042 2043 2050 2051 2052 2077 2078 2079 2086 2087 2088 2224 2225 2226 2230 2231 2232 2806 2807 2808
1273 1274 1275 1849 1850 1851 1855 1856 1857 1993 1994 1995 2002 2003 2004 2029 2030 2031 2038 2039 2040 2053 2054 2055 2062 2063 2064 2089 2090 2091 2098 2099 2100 2233 2234 2235 2239 2240 2241 2809 2810 2811
1273 1274 1275 1849 1850 1851 1855 1856 1857 1993 1994 1995 2002 2003 2004 2029 2030 2031 2038 2039 2040 2053 2054 2055 2062 2063 2064 2089 2090 2091 2098 2099 2100 2233 2234 2235 2239 2240 2241 2809 2810 2811
1273 1274 1275 1849 1850 1851 1855 1856 1857 1993 1994 1995 2002 2003 2004 2029 2030 2031 2038 2039 2040 2053 2054 2055 2062 2063 2064 2089 2090 2091 2098 2099 2100 2233 2234 2235 2239 2240 2241 2809 2810 2811
1276 1277 1278 1852 1853 1854 1858 1859 1860 1996 1997 1998 1999 2000 2001 2032 2033 2034 2035 2036 2037 2056 2057 2058 2059 2060 2061 2092 2093 2094 2095 2096 2097 2236 2237 2238 2242 2243 2244 2812 2813 2814
1276 1277 1278 1852 1853 1854 1858 1859 1860 1996 1997 1998 1999 2000 2001 2032 2033 2034 2035 2036 2037 2056 2057 2058 2059 2060 2061 2092 2093 2094 2095 2096 2097 2236 2237 2238 2242 2243 2244 2812 2813 2814
1276 1277 1278 1852 1853 1854 1858 1859 1860 1996 1997 1998 1999 2000 2001 2032 2033 2034 2035 2036 2037 2056 2057 2058 2059 2060 2061 2092 2093 2094 2095 2096 2097 2236 2237 2238 2242 2243 2244 2812 2813 2814
1279 1280 1281 1849 1850 1851 1855 1856 1857 1996 1997 1998 1999 2000 2001 2032 2033 2034 2035 2036 2037 2056 2057 2058 2059 2060 2061 2092 2093 2094 2095 2096 2097 2233 2234 2235 2239 2240 2241 2815 2816 2817
1279 1280 1281 1849 1850 1851 1855 1856 1857 1996 1997 1998 1999 2000 2001 2032 2033 2034 2035 2036 2037 2056 2057 2058 2059 2060 2061 2092 2093 2094 2095 2096 2097 2233 2234 2235 2239 2240 2241 2815 2816 2817
1279 1280 1281 1849 1850 1851 1855 1856 1857 1996 1997 1998 1999 2000 2001 2032 2033 2034 2035 2036 2037 2056 2057 2058 2059 2060 2061 2092 2093 2094 2095 2096 2097 2233 2234 2235 2239 2240 2241 2815 2816 2817
1282 1283 1284 1852 1853 1854 1858 1859 1860 1993 1994 1995 2002 2003 2004 2029 2030 2031 2038 2039 2040 2053 2054 2055 2062 2063 2064 2089 2090 2091 2098 2099 2100 2236 2237 2238 2242 2243 2244 2818 2819 2820
1282 1283 1284 1852 1853 1854 1858 1859 1860 1993 1994 1995 2002 2003 2004 2029 2030 2031 2038 2039 2040 2053 2054 2055 2062 2063 2064 2089 2090 2091 2098 2099 2100 2236 2237 2238 2242 2243 2244 2818 2819 2820
1282 1283 1284 1852 1853 1854 1858 1859 1860 1993 1994 1995 2002 2003 2004 2029 2030 2031 2038 2039 2040 2053 2054 2055 2062 2063 2064 2089 2090 2091 2098 2099 2100 2236 2237 2238 2242 2243 2244 2818 2819 2820
1285 1286 1287 1861 1862 1863 1867 1868 1869 2005 2006 2007 2014 2015 2016 2017 2018 2019 2026 2027 2028 2041 2042 2043 2050 2051 2052 2101 2102 2103 2110 2111 2112 2245 2246 2247 2251 2252 2253 2821 2822 2823
1285 1286 1287 1861 1862 1863 1867 1868 1869 2005 2006 2007 2014 2015 2016 2017 2018 2019 2026 2027 2028 2041 2042 2043 2050 2051 2052 2101 2102 2103 2110 2111 2112 2245 2246 2247 2251 2252 2253 2821 2822 2823
1285 1286 1287 1861 1862 1863 1867 1868 1869 2005 2006 2007 2014 2015 2016 2017 2018 2019 2026 2027 2028 2041 2042 2043 2050 2051 2052 2101 2102 2103 2110 2111 2112 2245 2246 2247 2251 2252 2253 2821 2822 2823
1288 1289 1290 1864 1865 1866 1870 1871 1872 2008 2009 2010 2011 2012 2013 2020 2021 2022 2023 2024 2025 2044 2045 2046 2047 2048 2049 2104 2105 2106 2107 2108 2109 2248 2249 2250 2254 2255 2256 2824 2825 2826
1288 1289 1290 1864 1865 1866 1870 1871 1872 2008 2009 2010 2011 2012 2013 2020 2021 2022 2023 2024 2025 2044 2045 2046 2047 2048 2049 2104 2105 2106 2107 2108 2109 2248 2249 2250 2254 2255 2256 2824 2825 2826
1288 1289 1290 1864 1865 1866 1870 1871 1872 2008 2009 2010 2011 2012 2013 2020 2021 2022 2023 2024 2025 2044 2045 2046 2047 2048 2049 2104 2105 2106 2107 2108 2109 2248 2249 2250 2254 2255 2256 2824 2825 2826
1291 1292 1293 1861 1862 1863 1867 1868 1869 2008 2009 2010 2011 2012 2013 2020 2021 2022 2023 2024 2025 2044 2045 2046 2047 2048 2049 2104 2105 2106 2107 2108 2109 2245 2246 2247 2251 2252 2253 2827 2828 2829
1291 1292 1293 1861 1862 1863 1867 1868 1869 2008 2009 2010 2011 2012 2013 2020 2021 2022 2023 2024 2025 2044 2045 2046 2047 2048 2049 2104 2105 2106 2107 2108 2109 2245 2246 2247 2251 2252 2253 2827 2828 2829
1291 1292 1293 1861 1862 1863 1867 1868 1869 2008 2009 2010 2011 2012 2013 2020 2021 2022 2023 2024 2025 2044 2045 2046 2047 2048 2049 2104 2105 2106 2107 2108 2109 2245 2246 2247 2251 2252 2253 2827 2828 2829
1294 1295 1296 1864 1865 1866 1870 1871 1872 2005 2006 2007 2014 2015 2016 2017 2018 2019 2026 2027 2028 2041 2042 2043 2050 2051 2052 2101 2102 2103 2110 2111 2112 2248 2249 2250 2254 2255 2256 2830 2831 2832
1294 1295 1296 1864 1865 1866 1870 1871 1872 2005 2006 2007 2014 2015 2016 2017 2018 2019 2026 2027 2028 2041 2042 2043 2050 2051 2052 2101 2102 2103 2110 2111 2112 2248 2249 2250 2254 2255 2256 2830 2831 2832
1294 1295 1296 1864 1865 1866 1870 1871 1872 2005 2006 2007 2014 2015 2016 2017 2018 2019 2026 2027 2028 2041 2042 2043 2050 2051 2052 2101 2102 2103 2110 2111 2112 2248 2249 2250 2254 2255 2256 2830 2831 2832
1297 1298 1299 1873 1874 1875 1879 1880 1881 1921 1922 1923 1930 1931 1932 2017 2018 2019 2026 2027 2028 2077 2078 2079 2086 2087 2088 2101 2102 2103 2110 2111 2112 2257 2258 2259 2263 2264 2265 2833 2834 2835
1297 1298 1299 1873 1874 1875 1879 1880 1881 1921 1922 1923 1930 1931 1932 2017 2018 2019 2026 2027 2028 2077 2078 2079 2086 2087 2088 2101 2102 2103 2110 2111 2112 2257 2258 2259 2263 2264 2265 2833 2834 2835
1297 1298 1299 1873 1874 1875 1879 1880 1881 1921 1922 1923 1930 1931 1932 2017 2018 2019 2026 2027 2028 2077 2078 2079 2086 2087 2088 2101 2102 2103 2110 2111 2112 2257 2258 2259 2263 2264 2265 2833 2834 2835
1300 1301 1302 1876 1877 1878 1882 1883 1884 1924 1925 1926 1927 1928 1929 2020 2021 2022 2023 2024 2025 2080 2081 2082 2083 2084 2085 2104 2105 2106 2107 2108 2109 2260 2261 2262 2266 2267 2268 2836 2837 2838
1300 1301 1302 1876 1877 1878 1882 1883 1884 1924 1925 1926 1927 1928 1929 2020 2021 2022 2023 2024 2025 2080 2081 2082 2083 2084 2085 2104 2105 2106 2107 2108 2109 2260 2261 2262 2266 2267 2268 2836 2837 2838
1300 1301 1302 1876 1877 1878 1882 1883 1884 1924 1925 1926 1927 1928 1929 2020 2021 2022 2023 2024 2025 2080 2081 2082 2083 2084 2085 2104 2105 2106 2107 2108 2109 2260 2261 2262 2266 2267 2268 2836 2837 2838
1303 1304 1305 1873 1874 1875 1879 1880 1881 1924 1925 1926 1927 1928 1929 2020 2021 2022 2023 2024 2025 2080 2081 2082 2083 2084 2085 2104 2105 2106 2107 2108 2109 2257 2258 2259 2263 2264 2265 2839 2840 2841
1303 1304 1305 1873 1874 1875 1879 1880 1881 1924 1925 1926 1927 1928 1929 2020 2021 2022 2023 2024 2025 2080 2081 2082 2083 2084 2085 2104 2105 2106 2107 2108 2109 2257 2258 2259 2263 2264 2265 2839 2840 2841
1303 1304 1305 1873 1874 1875 1879 1880 1881 1924 1925 1926 1927 1928 1929 2020 2021 2022 2023 2024 2025 2080 2081 2082 2083 2084 2085 2104 2105 2106 2107 2108 2109 2257 2258 2259 2263 2264 2265 2839 2840 2841
1306 1307 1308 1876 1877 1878 1882 1883 1884 1921 1922 1923 1930 1931 1932 2017 2018 2019 2026 2027 2028 2077 2078 2079 2086 2087 2088 2101 2102 2103 2110 2111 2112 2260 2261 2262 2266 2267 2268 2842 2843 2844
1306 1307 1308 1876 1877 1878 1882 1883 1884 1921 1922 1923 1930 1931 1932 2017 2018 2019 2026 2027 2028 2077 2078 2079 2086 2087 2088 2101 2102 2103 2110 2111 2112 2260 2261 2262 2266 2267 2268 2842 2843 2844
1306 1307 1308 1876 1877 1878 1882 1883 1884 1921 1922 1923 1930 1931 1932 2017 2018 2019 2026 2027 2028 2077 2078 2079 2086 2087 2088 2101 2102 2103 2110 2111 2112 2260 2261 2262 2266 2267 2268 2842 2843 2844
1309 1310 1311 1885 1886 1887 1891 1892 1893 1933 1934 1935 1942 1943 1944 2029 2030 2031 2038 2039 2040 2065 2066 2067 2074 2075 2076 2089 2090 2091 2098 2099 2100 2269 2270 2271 2275 2276 2277 2845 2846 2847
1309 1310 1311 1885 1886 1887 1891 1892 1893 1933 1934 1935 1942 1943 1944 2029 2030 2031 2038 2039 2040 2065 2066 2067 2074 2075 2076 2089 2090 2091 2098 2099 2100 2269 2270 2271 2275 2276 2277 2845 2846 2847
1309 1310 1311 1885 1886 1887 1891 1892 1893 1933 1934 1935 1942 1943 1944 2029 2030 2031 2038 2039 2040 2065 2066 2067 2074 2075 2076 2089 2090 2091 2098 2099 2100 2269 2270 2271 2275 2276 2277 2845 2846 2847
1312 1313 1314 1888 1889 1890 1894 1895 1896 1936 1937 1938 1939 1940 1941 2032 2033 2034 2035 2036 2037 2068 2069 2070 2071 2072 2073 2092 2093 2094 2095 2096 2097 2272 2273 2274 2278 2279 2280 2848 2849 2850
1312 1313 1314 1888 1889 1890 1894 1895 1896 1936 1937 1938 1939 1940 1941 2032 2033 2034 2035 2036 2037 2068 2069 2070 2071 2072 2073 2092 2093 2094 2095 2096 2097 2272 2273 2274 2278 2279 2280 2848 2849 2850
1312 1313 1314 1888 1889 1890 1894 1895 1896 1936 1937 1938 1939 1940 1941 2032 2033 2034 2035 2036 2037 2068 2069 2070 2071 2072 2073 2092 2093 2094 2095 2096 2097 2272 2273 2274 2278 2279 2280 2848 2849 2850
1315 1316 1317 1885 1886 1887 1891 1892 1893 1936 1937 1938 1939 1940 1941 2032 2033 2034 2035 2036 2037 2068 2069 2070 2071 2072 2073 2092 2093 2094 2095 2096 2097 2269 2270 2271 2275 2276 2277 2851 2852 2853
1315 1316 1317 1885 1886 1887 1891 1892 1893 1936 1937 1938 1939 1940 1941 2032 2033 2034 2035 2036 2037 2068 2069 2070 2071 2072 2073 2092 2093 2094 2095 2096 2097 2269 2270 2271 2275 2276 2277 2851 2852 2853
1315 1316 1317 1885 1886 1887 1891 1892 1893 1936 1937 1938 1939 1940 1941 2032 2033 2034 2035 2036 2037 2068 2069 2070 2071 2072 2073 2092 2093 2094 2095 2096 2097 2269 2270 2271 2275 2276 2277 2851 2852 2853
1318 1319 1320 1888 1889 1890 1894 1895 1896 1933 1934 1935 1942 1943 1944 2029 2030 2031 2038 2039 2040 2065 2066 2067 2074 2075 2076 2089 2090 2091 2098 2099 2100 2272 2273 2274 2278 2279 2280 2854 2855 2856
1318 1319 1320 1888 1889 1890 1894 1895 1896 1933 1934 1935 1942 1943 1944 2029 2030 2031 2038 2039 2040 2065 2066 2067 2074 2075 2076 2089 2090 2091 2098 2099 2100 2272 2273 2274 2278 2279 2280 2854 2855 2856
1318 1319 1320 1888 1889 1890 1894 1895 1896 1933 1934 1935 1942 1943 1944 2029 2030 2031 2038 2039 2040 2065 2066 2067 2074 2075 2076 2089 2090 2091 2098 2099 2100 2272 2273 2274 2278 2279 2280 2854 2855 2856
1321 1322 1323 1897 1898 1899 1903 1904 1905 1945 1946 1947 1954 1955 1956 2041 2042 2043 2050 2051 2052 2077 2078 2079 2086 2087 2088 2101 2102 2103 2110 2111 2112 2281 2282 2283 2287 2288 2289 2857 2858 2859
1321 1322 1323 1897 1898 1899 1903 1904 1905 1945 1946 1947 1954 1955 1956 2041 2042 2043 2050 2051 2052 2077 2078 2079 2086 2087 2088 2101 2102 2103 2110 2111 2112 2281 2282 2283 2287 2288 2289 2857 2858 2859
1321 1322 1323 1897 1898 1899 1903 1904 1905 1945 1946 1947 1954 1955 1956 2041 2042 2043 2050 2051 2052 2077 2078 2079 2086 2087 2088 2101 2102 2103 2110 2111 2112 2281 2282 2283 2287 2288 2289 2857 2858 2859
1324 1325 1326 1900 1901 1902 1906 1907 1908 1948 1949 1950 1951 1952 1953 2044 2045 2046 2047 2048 2049 2080 2081 2082 2083 2084 2085 2104 2105 2106 2107 2108 2109 2284 2285 2286 2290 2291 2292 2860 2861 2862
1324 1325 1326 1900 1901 1902 1906 1907 1908 1948 1949 1950 1951 1952 1953 2044 2045 2046 2047 2048 2049 2080 2081 2082 2083 2084 2085 2104 2105 2106 2107 2108 2109 2284 2285 2286 2290 2291 2292 2860 2861 2862
1324 1325 1326 1900 1901 1902 1906 1907 1908 1948 1949 1950 1951 1952 1953 2044 2045 2046 2047 2048 2049 2080 2081 2082 2083 2084 2085 2104 2105 2106 2107 2108 2109 2284 2285 2286 2290 2291 2292 2860 2861 2862
1327 1328 1329 1897 1898 1899 1903 1904 1905 1948 1949 1950 1951 1952 1953 2044 2045 2046 2047 2048 2049 2080 2081 2082 2083 2084 2085 2104 2105 2106 2107 2108 2109 2281 2282 2283 2287 2288 2289 2863 2864 2865
1327 1328 1329 1897 1898 1899 1903 1904 1905 1948 1949 1950 1951 1952 1953 2044 2045 2046 2047 2048 2049 2080 2081 2082 2083 2084 2085 2104 2105 2106 2107 2108 2109 2281 2282 2283 2287 2288 2289 2863 2864 2865
1327 1328 1329 1897 1898 1899 1903 1904 1905 1948 1949 1950 1951 1952 1953 2044 2045 2046 2047 2048 2049 2080 2081 2082 2083 2084 2085 2104 2105 2106 2107 2108 2109 2281 2282 2283 2287 2288 2289 2863 2864 2865
1330 1331 1332 1900 1901 1902 1906 1907 1908 1945 1946 1947 1954 1955 1956 2041 2042 2043 2050 2051 2052 2077 2078 2079 2086 2087 2088 2101 2102 2103 2110 2111 2112 2284 2285 2286 2290 2291 2292 2866 2867 2868
1330 1331 1332 1900 1901 1902 1906 1907 1908 1945 1946 1947 1954 1955 1956 2041 2042 2043 2050 2051 2052 2077 2078 2079 2086 2087 2088 2101 2102 2103 2110 2111 2112 2284 2285 2286 2290 2291 2292 2866 2867 2868
1330 1331 1332 1900 1901 1902 1906 1907 1908 1945 1946 1947 1954 1955 1956 2041 2042 2043 2050 2051 2052 2077 2078 2079 2086 2087 2088 2101 2102 2103 2110 2111 2112 2284 2285 2286 2290 2291 2292 2866 2867 2868
1333 1334 1335 1909 1910 1911 1915 1916 1917 1957 1958 1959 1966 1967 1968 2053 2054 2055 2062 2063 2064 2065 2066 2067 2074 2075 2076 2089 2090 2091 2098 2099 2100 2293 2294 2295 2299 2300 2301 2869 2870 2871
1333 1334 1335 1909 1910 1911 1915 1916 1917 1957 1958 1959 1966 1967 1968 2053 2054 2055 2062 2063 2064 2065 2066 2067 2074 2075 2076 2089 2090 2091 2098 2099 2100 2293 2294 2295 2299 2300 2301 2869 2870 2871
1333 1334 1335 1909 1910 1911 1915 1916 1917 1957 1958 1959 1966 1967 1968 2053 2054 2055 2062 2063 2064 2065 2066 2067 2074 2075 2076 2089 2090 2091 2098 2099 2100 2293 2294 2295 2299 2300 2301 2869 2870 2871
1336 1337 1338 1912 1913 1914 1918 1919 1920 1960 1961 1962 1963 1964 1965 2056 2057 2058 2059 2060 2061 2068 2069 2070 2071 2072 2073 2092 2093 2094 2095 2096 2097 2296 2297 2298 2302 2303 2304 2872 2873 2874
1336 1337 1338 1912 1913 1914 1918 1919 1920 1960 1961 1962 1963 1964 1965 2056 2057 2058 2059 2060 2061 2068 2069 2070 2071 2072 2073 2092 2093 2094 2095 2096 2097 2296 2297 2298 2302 2303 2304 2872 2873 2874
1336 1337 1338 1912 1913 1914 1918 1919 1920 1960 1961 1962 1963 1964 1965 2056 2057 2058 2059 2060 2061 2068 2069 2070 2071 2072 2073 2092 2093 2094 2095 2096 2097 2296 2297 2298 2302 2303 2304 2872 2873 2874
1339 1340 1341 1909 1910 1911 1915 1916 1917 1960 1961 1962 1963 1964 1965 2056 2057 2058 2059 2060 2061 2068 2069 2070 2071 2072 2073 2092 2093 2094 2095 2096 2097 2293 2294 2295 2299 2300 2301 2875 2876 2877
1339 1340 1341 1909 1910 1911 1915 1916 1917 1960 1961 1962 1963 1964 1965 2056 2057 2058 2059 2060 2061 2068 2069 2070 2071 2072 2073 2092 2093 2094 2095 2096 2097 2293 2294 2295 2299 2300 2301 2875 2876 2877
1339 1340 1341 1909 1910 1911 1915 1916 1917 1960 1961 1962 1963 1964 1965 2056 2057 2058 2059 2060 2061 2068 2069 2070 2071 2072 2073 2092 2093 2094 2095 2096 2097 2293 2294 2295 2299 2300 2301 2875 2876 2877
1342 1343 1344 1912 1913 1914 1918 1919 1920 1957 1958 1959 1966 1967 1968 2053 2054 2055 2062 2063 2064 2065 2066 2067 2074 2075 2076 2089 2090 2091 2098 2099 2100 2296 2297 2298 2302 2303 2304 2878 2879 2880
1342 1343 1344 1912 1913 1914 1918 1919 1920 1957 1958 1959 1966 1967 1968 2053 2054 2055 2062 2063 2064 2065 2066 2067 2074 2075 2076 2089 2090 2091 2098 2099 2100 2296 2297 2298 2302 2303 2304 2878 2879 2880
1342 1343 1344 1912 1913 1914 1918 1919 1920 1957 1958 1959 1966 1967 1968 2053 2054 2055 2062 2063 2064 2065 2066 2067 2074 2075 2076 2089 2090 2091 2098 2099 2100 2296 2297 2298 2302 2303 2304 2878 2879 2880
1345 1346 1347 1537 1538 1539 1543 1544 1545 1921 1922 1923 1927 1928 1929 2125 2126 2127 2134 2135 2136 2149 2150 2151 2158 2159 2160 2161 2162 2163 2170 2171 2172 2257 2258 2259 2266 2267 2268 2881 2882 2883
1345 1346 1347 1537 1538 1539 1543 1544 1545 1921 1922 1923 1927 1928 1929 2125 2126 2127 2134 2135 2136 2149 2150 2151 2158 2159 2160 2161 2162 2163 2170 2171 2172 2257 2258 2259 2266 2267 2268 2881 2882 2883
1345 1346 1347 1537 1538 1539 1543 1544 1545 1921 1922 1923 1927 1928 1929 2125 2126 2127 2134 2135 2136 2149 2150 2151 2158 2159 2160 2161 2162 2163 2170 2171 2172 2257 2258 2259 2266 2267 2268 2881 2882 2883
1348 1349 1350 1540 1541 1542 1546 1547 1548 1924 1925 1926 1930 1931 1932 2128 2129 2130 2131 2132 2133 2152 2153 2154 2155 2156 2157 2164 2165 2166 2167 2168 2169 2260 2261 2262 2263 2264 2265 2884 2885 2886
1348 1349 1350 1540 1541 1542 1546 1547 1548 1924 1925 1926 1930 1931 1932 2128 2129 2130 2131 2132 2133 2152 2153 2154 2155 2156 2157 2164 2165 2166 2167 2168 2169 2260 2261 2262 2263 2264 2265 2884 2885 2886
1348 1349 1350 1540 1541 1542 1546 1547 1548 1924 1925 1926 1930 1931 1932 2128 2129 2130 2131 2132 2133 2152 2153 2154 2155 2156 2157 2164 2165 2166 2167 2168 2169 2260 2261 2262 2263 2264 2265 2884 2885 2886
1351 1352 1353 1537 1538 1539 1543 1544 1545 1921 1922 1923 1927 1928 1929 2128 2129 2130 2131 2132 2133 2152 2153 2154 2155 2156 2157 2164 2165 2166 2167 2168 2169 2260 2261 2262 2263 2264 2265 2887 2888 2889
1351 1352 1353 1537 1538 1539 1543 1544 1545 1921 1922 1923 1927 1928 1929 2128 2129 2130 2131 2132 2133 2152 2153 2154 2155 2156 2157 2164 2165 2166 2167 2168 2169 2260 2261 2262 2263 2264 2265 2887 2888 2889
1351 1352 1353 1537 1538 1539 1543 1544 1545 1921 1922 1923 1927 1928 1929 2128 2129 2130 2131 2132 2133 2152 2153 2154 2155 2156 2157 2164 2165 2166 2167 2168 2169 2260 2261 2262 2263 2264 2265 2887 2888 2889
1354 1355 1356 1540 1541 1542 1546 1547 1548 1924 1925 1926 1930 1931 1932 2125 2126 2127 2134 2135 2136 2149 2150 2151 2158 2159 2160 2161 2162 2163 2170 2171 2172 2257 2258 2259 2266 2267 2268 2890 2891 2892
1354 1355 1356 1540 1541 1542 1546 1547 1548 1924 1925 1926 1930 1931 1932 2125 2126 2127 2134 2135 2136 2149 2150 2151 2158 2159 2160 2161 2162 2163 2170 2171 2172 2257 2258 2259 2266 2267 2268 2890 2891 2892
1354 1355 1356 1540 1541 1542 1546 1547 1548 1924 1925 1926 1930 1931 1932 2125 2126 2127 2134 2135 2136 2149 2150 2151 2158 2159 2160 2161 2162 2163 2170 2171 2172 2257 2258 2259 2266 2267 2268 2890 2891 2892
1357 1358 1359 1549 1550 1551 1555 1556 1557 1933 1934 1935 1939 1940 1941 2113 2114 2115 2122 2123 2124 2137 2138 2139 2146 2147 2148 2173 2174 2175 2182 2183 2184 2269 2270 2271 2278 2279 2280 2893 2894 2895
1357 1358 1359 1549 1550 1551 1555 1556 1557 1933 1934 1935 1939 1940 1941 2113 2114 2115 2122 2123 2124 2137 2138 2139 2146 2147 2148 2173 2174 2175 2182 2183 2184 2269 2270 2271 2278 2279 2280 2893 2894 2895
1357 1358 1359 1549 1550 1551 1555 1556 1557 1933 1934 1935 1939 1940 1941 2113 2114 2115 2122 2123 2124 2137 2138 2139 2146 2147 2148 2173 2174 2175 2182 2183 2184 2269 2270 2271 2278 2279 2280 2893 2894 2895
1360 1361 1362 1552 1553 1554 1558 1559 1560 1936 1937 1938 1942 1943 1944 2116 2117 2118 2119 2120 2121 2140 2141 2142 2143 2144 2145 2176 2177 2178 2179 2180 2181 2272 2273 2274 2275 2276 2277 2896 2897 2898
1360 1361 1362 1552 1553 1554 1558 1559 1560 1936 1937 1938 1942 1943 1944 2116 2117 2118 2119 2120 2121 2140 2141 2142 2143 2144 2145 2176 2177 2178 2179 2180 2181 2272 2273 2274 2275 2276 2277 2896 2897 2898
1360 1361 1362 1552 1553 1554 1558 1559 1560 1936 1937 1938 1942 1943 1944 2116 2117 2118 2119 2120 2121 2140 2141 2142 2143 2144 2145 2176 2177 2178 2179 2180 2181 2272 2273 2274 2275 2276 2277 2896 2897 2898
1363 1364 1365 1549 1550 1551 1555 1556 1557 1933 1934 1935 1939 1940 1941 2116 2117 2118 2119 2120 2121 2140 2141 2142 2143 2144 2145 2176 2177 2178 2179 2180 2181 2272 2273 2274 2275 2276 2277 2899 2900 2901
1363 1364 1365 1549 1550 1551 1555 1556 1557 1933 1934 1935 1939 1940 1941 2116 2117 2118 2119 2120 2121 2140 2141 2142 2143 2144 2145 2176 2177 2178 2179 2180 2181 2272 2273 2274 2275 2276 2277 2899 2900 2901
1363 1364 1365 1549 1550 1551 1555 1556 1557 1933 1934 1935 1939 1940 1941 2116 2117 2118 2119 2120 2121 2140 2141 2142 2143 2144 2145 2176 2177 2178 2179 2180 2181 2272 2273 2274 2275 2276 2277 2899 2900 2901
1366 1367 1368 1552 1553 1554 1558 1559 1560 1936 1937 1938 1942 1943 1944 2113 2114 2115 2122 2123 2124 2137 2138 2139 2146 2147 2148 2173 2174 2175 2182 2183 2184 2269 2270 2271 2278 2279 2280 2902 2903 2904
1366 1367 1368 1552 1553 1554 1558 1559 1560 1936 1937 1938 1942 1943 1944 2113 2114 2115 2122 2123 2124 2137 2138 2139 2146 2147 2148 2173 2174 2175 2182 2183 2184 2269 2270 2271 2278 2279 2280 2902 2903 2904
1366 1367 1368 1552 1553 1554 1558 1559 1560 1936 1937 1938 1942 1943 1944 2113 2114 2115 2122 2123 2124 2137 2138 2139 2146 2147 2148 2173 2174 2175 2182 2183 2184 2269 2270 2271 2278 2279 2280 2902 2903 2904
1369 1370 1371 1561 1562 1563 1567 1568 1569 1945 1946 1947 1951 1952 1953 2125 2126 2127 2134 2135 2136 2149 2150 2151 2158 2159 2160 2185 2186 2187 2194 2195 2196 2281 2282 2283 2290 2291 2292 2905 2906 2907
1369 1370 1371 1561 1562 1563 1567 1568 1569 1945 1946 1947 1951 1952 1953 2125 2126 2127 2134 2135 2136 2149 2150 2151 2158 2159 2160 2185 2186 2187 2194 2195 2196 2281 2282 2283 2290 2291 2292 2905 2906 2907
1369 1370 1371 1561 1562 1563 1567 1568 1569 1945 1946 1947 1951 1952 1953 2125 2126 2127 2134 2135 2136 2149 2150 2151 2158 2159 2160 2185 2186 2187 2194 2195 2196 2281 2282 2283 2290 2291 2292 2905 2906 2907
1372 1373 1374 1564 1565 1566 1570 1571 1572 1948 1949 1950 1954 1955 1956 2128 2129 2130 2131 2132 2133 2152 2153 2154 2155 2156 2157 2188 2189 2190 2191 2192 2193 2284 2285 2286 2287 2288 2289 2908 2909 2910
1372 1373 1374 1564 1565 1566 1570 1571 1572 1948 1949 1950 1954 1955 1956 2128 2129 2130 2131 2132 2133 2152 2153 2154 2155 2156 2157 2188 2189 2190 2191 2192 2193 2284 2285 2286 2287 2288 2289 2908 2909 2910
1372 1373 1374 1564 1565 1566 1570 1571 1572 1948 1949 1950 1954 1955 1956 2128 2129 2130 2131 2132 2133 2152 2153 2154 2155 2156 2157 2188 2189 2190 2191 2192 2193 2284 2285 2286 2287 2288 2289 2908 2909 2910
1375 1376 1377 1561 1562 1563 1567 1568 1569 1945 1946 1947 1951 1952 1953 2128 2129 2130 2131 2132 2133 2152 2153 2154 2155 2156 2157 2188 2189 2190 2191 2192 2193 2284 2285 2286 2287 2288 2289 2911 2912 2913
1375 1376 1377 1561 1562 1563 1567 1568 1569 1945 1946 1947 1951 1952 1953 2128 2129 2130 2131 2132 2133 2152 2153 2154 2155 2156 2157 2188 2189 2190 2191 2192 2193 2284 2285 2286 2287 2288 2289 2911 2912 2913
1375 1376 1377 1561 1562 1563 1567 1568 1569 1945 1946 1947 1951 1952 1953 2128 2129 2130 2131 2132 2133 2152 2153 2154 2155 2156 2157 2188 2189 2190 2191 2192 2193 2284 2285 2286 2287 2288 2289 2911 2912 2913
1378 1379 1380 1564 1565 1566 1570 1571 1572 1948 1949 1950 1954 1955 1956 2125 2126 2127 2134 2135 2136 2149 2150 2151 2158 2159 2160 2185 2186 2187 2194 2195 2196 2281 2282 2283 2290 2291 2292 2914 2915 2916
1378 1379 1380 1564 1565 1566 1570 1571 1572 1948 1949 1950 1954 1955 1956 2125 2126 2127 2134 2135 2136 2149 2150 2151 2158 2159 2160 2185 2186 2187 2194 2195 2196 2281 2282 2283 2290 2291 2292 2914 2915 2916
1378 1379 1380 1564 1565 1566 1570 1571 1572 1948 1949 1950 1954 1955 1956 2125 2126 2127 2134 2135 2136 2149 2150 2151 2158 2159 2160 2185 2186 2187 2194 2195 2196 2281 2282 2283 2290 2291 2292 2914 2915 2916
1381 1382 1383 1573 1574 1575 1579 1580 1581 1957 1958 1959 1963 1964 1965 2113 2114 2115 2122 2123 2124 2137 2138 2139 2146 2147 2148 2197 2198 2199 2206 2207 2208 2293 2294 2295 2302 2303 2304 2917 2918 2919
1381 1382 1383 1573 1574 1575 1579 1580 1581 1957 1958 1959 1963 1964 1965 2113 2114 2115 2122 2123 2124 2137 2138 2139 2146 2147 2148 2197 2198 2199 2206 2207 2208 2293 2294 2295 2302 2303 2304 2917 2918 2919
1381 1382 1383 1573 1574 1575 1579 1580 1581 1957 1958 1959 1963 1964 1965 2113 2114 2115 2122 2123 2124 2137 2138 2139 2146 2147 2148 2197 2198 2199 2206 2207 2208 2293 2294 2295 2302 2303 2304 2917 2918 2919
1384 1385 1386 1576 1577 1578 1582 1583 1584 1960 1961 1962 1966 1967 1968 2116 2117 2118 2119 2120 2121 2140 2141 2142 2143 2144 2145 2200 2201 2202 2203 2204 2205 2296 2297 2298 2299 2300 2301 2920 2921 2922
1384 1385 1386 1576 1577 1578 1582 1583 1584 1960 1961 1962 1966 1967 1968 2116 2117 2118 2119 2120 2121 2140 2141 2142 2143 2144 2145 2200 2201 2202 2203 2204 2205 2296 2297 2298 2299 2300 2301 2920 2921 2922
1384 1385 1386 1576 1577 1578 1582 1583 1584 1960 1961 1962 1966 1967 1968 2116 2117 2118 2119 2120 2121 2140 2141 2142 2143 2144 2145 2200 2201 2202 2203 2204 2205 2296 2297 2298 2299 2300 2301 2920 2921 2922
1387 1388 1389 1573 1574 1575 1579 1580 1581 1957 1958 1959 1963 1964 1965 2116 2117 2118 2119 2120 2121 2140 2141 2142 2143 2144 2145 2200 2201 2202 2203 2204 2205 2296 2297 2298 2299 2300 2301 2923 2924 2925
1387 1388 1389 1573 1574 1575 1579 1580 1581 1957 1958 1959 1963 1964 1965 2116 2117 2118 2119 2120 2121 2140 2141 2142 2143 2144 2145 2200 2201 2202 2203 2204 2205 2296 2297 2298 2299 2300 2301 2923 2924 2925
1387 1388 1389 1573 1574 1575 1579 1580 1581 1957 1958 1959 1963 1964 1965 2116 2117 2118 2119 2120 2121 2140 2141 2142 2143 2144 2145 2200 2201 2202 2203 2204 2205 2296 2297 2298 2299 2300 2301 2923 2924 2925
1390 1391 1392 1576 1577 1578 1582 1583 1584 1960 1961 1962 1966 1967 1968 2113 2114 2115 2122 2123 2124 2137 2138 2139 2146 2147 2148 2197 2198 2199 2206 2207 2208 2293 2294 2295 2302 2303 2304 2926 2927 2928
1390 1391 1392 1576 1577 1578 1582 1583 1584 1960 1961 1962 1966 1967 1968 2113 2114 2115 2122 2123 2124 2137 2138 2139 2146 2147 2148 2197 2198 2199 2206 2207 2208 2293 2294 2295 2302 2303 2304 2926 2927 2928
1390 1391 1392 1576 1577 1578 1582 1583 1584 1960 1961 1962 1966 1967 1968 2113 2114 2115 2122 2123 2124 2137 2138 2139 2146 2147 2148 2197 2198 2199 2206 2207 2208 2293 2294 2295 2302 2303 2304 2926 2927 2928
1393 1394 1395 1585 1586 1587 1591 1592 1593 1969 1970 1971 1975 1976 1977 2113 2114 2115 2122 2123 2124 2173 2174 2175 2182 2183 2184 2197 2198 2199 2206 2207 2208 2209 2210 2211 2218 2219 2220 2929 2930 2931
1393 1394 1395 1585 1586 1587 1591 1592 1593 1969 1970 1971 1975 1976 1977 2113 2114 2115 2122 2123 2124 2173 2174 2175 2182 2183 2184 2197 2198 2199 2206 2207 2208 2209 2210 2211 2218 2219 2220 2929 2930 2931
1393 1394 1395 1585 1586 1587 1591 1592 1593 1969 1970 1971 1975 1976 1977 2113 2114 2115 2122 2123 2124 2173 2174 2175 2182 2183 2184 2197 2198 2199 2206 2207 2208 2209 2210 2211 2218 2219 2220 2929 2930 2931
1396 1397 1398 1588 1589 1590 1594 1595 1596 1972 1973 1974 1978 1979 1980 2116 2117 2118 2119 2120 2121 2176 2177 2178 2179 2180 2181 2200 2201 2202 2203 2204 2205 2212 2213 2214 2215 2216 2217 2932 2933 2934
1396 1397 1398 1588 1589 1590 1594 1595 1596 1972 1973 1974 1978 1979 1980 2116 2117 2118 2119 2120 2121 2176 2177 2178 2179 2180 2181 2200 2201 2202 2203 2204 2205 2212 2213 2214 2215 2216 2217 2932 2933 2934
1396 1397 1398 1588 1589 1590 1594 1595 1596 1972 1973 1974 1978 1979 1980 2116 2117 2118 2119 2120 2121 2176 2177 2178 2179 2180 2181 2200 2201 2202 2203 2204 2205 2212 2213 2214 2215 2216 2217 2932 2933 2934
1399 1400 1401 1585 1586 1587 1591 1592 1593 1969 1970 1971 1975 1976 1977 2116 2117 2118 2119 2120 2121 2176 2177 2178 2179 2180 2181 2200 2201 2202 2203 2204 2205 2212 2213 2214 2215 2216 2217 2935 2936 2937
1399 1400 1401 1585 1586 1587 1591 1592 1593 1969 1970 1971 1975 1976 1977 2116 2117 2118 2119 2120 2121 2176 2177 2178 2179 2180 2181 2200 2201 2202 2203 2204 2205 2212 2213 2214 2215 2216 2217 2935 2936 2937
1399 1400 1401 1585 1586 1587 1591 1592 1593 1969 1970 1971 1975 1976 1977 2116 2117 2118 2119 2120 2121 2176 2177 2178 2179 2180 2181 2200 2201 2202 2203 2204 2205 2212 2213 2214 2215 2216 2217 2935 2936 2937
1402 1403 1404 1588 1589 1590 1594 1595 1596 1972 1973 1974 1978 1979 1980 2113 2114 2115 2122 2123 2124 2173 2174 2175 2182 2183 2184 2197 2198 2199 2206 2207 2208 2209 2210 2211 2218 2219 2220 2938 2939 2940
1402 1403 1404 1588 1589 1590 1594 1595 1596 1972 1973 1974 1978 1979 1980 2113 2114 2115 2122 2123 2124 2173 2174 2175 2182 2183 2184 2197 2198 2199 2206 2207 2208 2209 2210 2211 2218 2219 2220 2938 2939 2940
1402 1403 1404 1588 1589 1590 1594 1595 1596 1972 1973 1974 1978 1979 1980 2113 2114 2115 2122 2123 2124 2173 2174 2175 2182 2183 2184 2197 2198 2199 2206 2207 2208 2209 2210 2211 2218 2219 2220 2938 2939 2940
1405 1406 1407 1597 1598 1599 1603 1604 1605 1981 1982 1983 1987 1988 1989 2125 2126 2127 2134 2135 2136 2161 2162 2163 2170 2171 2172 2185 2186 2187 2194 2195 2196 2221 2222 2223 2230 2231 2232 2941 2942 2943
1405 1406 1407 1597 1598 1599 1603 1604 1605 1981 1982 1983 1987 1988 1989 2125 2126 2127 2134 2135 2136 2161 2162 2163 2170 2171 2172 2185 2186 2187 2194 2195 2196 2221 2222 2223 2230 2231 2232 2941 2942 2943
1405 1406 1407 1597 1598 1599 1603 1604 1605 1981 1982 1983 1987 1988 1989 2125 2126 2127 2134 2135 2136 2161 2162 2163 2170 2171 2172 2185 2186 2187 2194 2195 2196 2221 2222 2223 2230 2231 2232 2941 2942 2943
1408 1409 1410 1600 1601 1602 1606 1607 1608 1984 1985 1986 1990 1991 1992 2128 2129 2130 2131 2132 2133 2164 2165 2166 2167 2168 2169 2188 2189 2190 2191 2192 2193 2224 2225 2226 2227 2228 2229 2944 2945 2946
1408 1409 1410 1600 1601 1602 1606 1607 1608 1984 1985 1986 1990 1991 1992 2128 2129 2130 2131 2132 2133 2164 2165 2166 2167 2168 2169 2188 2189 2190 2191 2192 2193 2224 2225 2226 2227 2228 2229 2944 2945 2946
1408 1409 1410 1600 1601 1602 1606 1607 1608 1984 1985 1986 1990 1991 1992 2128 2129 2130 2131 2132 2133 2164 2165 2166 2167 2168 2169 2188 2189 2190 2191 2192 2193 2224 2225 2226 2227 2228 2229 2944 2945 2946
1411 1412 1413 1597 1598 1599 1603 1604 1605 1981 1982 1983 1987 1988 1989 2128 2129 2130 2131 2132 2133 2164 2165 2166 2167 2168 2169 2188 2189 2190 2191 2192 2193 2224 2225 2226 2227 2228 2229 2947 2948 2949
1411 1412 1413 1597 1598 1599 1603 1604 1605 1981 1982 1983 1987 1988 1989 2128 2129 2130 2131 2132 2133 2164 2165 2166 2167 2168 2169 2188 2189 2190 2191 2192 2193 2224 2225 2226 2227 2228 2229 2947 2948 2949
1411 1412 1413 1597 1598 1599 1603 1604 1605 1981 1982 1983 1987 1988 1989 2128 2129 2130 2131 2132 2133 2164 2165 2166 2167 2168 2169 2188 2189 2190 2191 2192 2193 2224 2225 2226 2227 2228 2229 2947 2948 2949
1414 1415 1416 1600 1601 1602 1606 1607 1608 1984 1985 1986 1990 1991 1992 2125 2126 2127 2134 2135 2136 2161 2162 2163 2170 2171 2172 2185 2186 2187 2194 2195 2196 2221 2222 2223 2230 2231 2232 2950 2951 2952
1414 1415 1416 1600 1601 1602 1606 1607 1608 1984 1985 1986 1990 1991 1992 2125 2126 2127 2134 2135 2136 2161 2162 2163 2170 2171 2172 2185 2186 2187 2194 2195 2196 2221 2222 2223 2230 2231 2232 2950 2951 2952
1414 1415 1416 1600 1601 1602 1606 1607 1608 1984 1985 1986 1990 1991 1992 2125 2126 2127 2134 2135 2136 2161 2162 2163 2170 2171 2172 2185 2186 2187 2194 2195 2196 2221 2222 2223 2230 2231 2232 2950 2951 2952
1417 1418 1419 1609 1610 1611 1615 1616 1617 1993 1994 1995 1999 2000 2001 2137 2138 2139 2146 2147 2148 2173 2174 2175 2182 2183 2184 2197 2198 2199 2206 2207 2208 2233 2234 2235 2242 2243 2244 2953 2954 2955
1417 1418 1419 1609 1610 1611 1615 1616 1617 1993 1994 1995 1999 2000 2001 2137 2138 2139 2146 2147 2148 2173 2174 2175 2182 2183 2184 2197 2198 2199 2206 2207 2208 2233 2234 2235 2242 2243 2244 2953 2954 2955
1417 1418 1419 1609 1610 1611 1615 1616 1617 1993 1994 1995 1999 2000 2001 2137 2138 2139 2146 2147 2148 2173 2174 2175 2182 2183 2184 2197 2198 2199 2206 2207 2208 2233 2234 2235 2242 2243 2244 2953 2954 2955
1420 1421 1422 1612 1613 1614 1618 1619 1620 1996 1997 1998 2002 2003 2004 2140 2141 2142 2143 2144 2145 2176 2177 2178 2179 2180 2181 2200 2201 2202 2203 2204 2205 2236 2237 2238 2239 2240 2241 2956 2957 2958
1420 1421 1422 1612 1613 1614 1618 1619 1620 1996 1997 1998 2002 2003 2004 2140 2141 2142 2143 2144 2145 2176 2177 2178 2179 2180 2181 2200 2201 2202 2203 2204 2205 2236 2237 2238 2239 2240 2241 2956 2957 2958
1420 1421 1422 1612 1613 1614 1618 1619 1620 1996 1997 1998 2002 2003 2004 2140 2141 2142 2143 2144 2145 2176 2177 2178 2179 2180 2181 2200 2201 2202 2203 2204 2205 2236 2237 2238 2239 2240 2241 2956 2957 2958
1423 1424 1425 1609 1610 1611 1615 1616 1617 1993 1994 1995 1999 2000 2001 2140 2141 2142 2143 2144 2145 2176 2177 2178 2179 2180 2181 2200 2201 2202 2203 2204 2205 2236 2237 2238 2239 2240 2241 2959 2960 2961
1423 1424 1425 1609 1610 1611 1615 1616 1617 1993 1994 1995 1999 2000 2001 2140 2141 2142 2143 2144 2145 2176 2177 2178 2179 2180 2181 2200 2201 2202 2203 2204 2205 2236 2237 2238 2239 2240 2241 2959 2960 2961
1423 1424 1425 1609 1610 1611 1615 1616 1617 1993 1994 1995 1999 2000 2001 2140 2141 2142 2143 2144 2145 2176 2177 2178 2179 2180 2181 2200 2201 2202 2203 2204 2205 2236 2237 2238 2239 2240 2241 2959 2960 2961
1426 1427 1428 1612 1613 1614 1618 1619 1620 1996 1997 1998 2002 2003 2004 2137 2138 2139 2146 2147 2148 2173 2174 2175 2182 2183 2184 2197 2198 2199 2206 2207 2208 2233 2234 2235 2242 2243 2244 2962 2963 2964
1426 1427 1428 1612 1613 1614 1618 1619 1620 1996 1997 1998 2002 2003 2004 2137 2138 2139 2146 2147 2148 2173 2174 2175 2182 2183 2184 2197 2198 2199 2206 2207 2208 2233 2234 2235 2242 2243 2244 2962 2963 2964
1426 1427 1428 1612 1613 1614 1618 1619 1620 1996 1997 1998 2002 2003 2004 2137 2138 2139 2146 2147 2148 2173 2174 2175 2182 2183 2184 2197 2198 2199 2206 2207 2208 2233 2234 2235 2242 2243 2244 2962 2963 2964
1429 1430 1431 1621 1622 1623 1627 1628 1629 2005 2006 2007 2011 2012 2013 2149 2150 2151 2158 2159 2160 2161 2162 2163 2170 2171 2172 2185 2186 2187 2194 2195 2196 2245 2246 2247 2254 2255 2256 2965 2966 2967
1429 1430 1431 1621 1622 1623 1627 1628 1629 2005 2006 2007 2011 2012 2013 2149 2150 2151 2158 2159 2160 2161 2162 2163 2170 2171 2172 2185 2186 2187 2194 2195 2196 2245 2246 2247 2254 2255 2256 2965 2966 2967
1429 1430 1431 1621 1622 1623 1627 1628 1629 2005 2006 2007 2011 2012 2013 2149 2150 2151 2158 2159 2160 2161 2162 2163 2170 2171 2172 2185 2186 2187 2194 2195 2196 2245 2246 2247 2254 2255 2256 2965 2966 2967
1432 1433 1434 1624 1625 1626 1630 1631 1632 2008 2009 2010 2014 2015 2016 2152 2153 2154 2155 2156 2157 2164 2165 2166 2167 2168 2169 2188 2189 2190 2191 2192 2193 2248 2249 2250 2251 2252 2253 2968 2969 2970
1432 1433 1434 1624 1625 1626 1630 1631 1632 2008 2009 2010 2014 2015 2016 2152 2153 2154 2155 2156 2157 2164 2165 2166 2167 2168 2169 2188 2189 2190 2191 2192 2193 2248 2249 2250 2251 2252 2253 2968 2969 2970
1432 1433 1434 1624 1625 1626 1630 1631 1632 2008 2009 2010 2014 2015 2016 2152 2153 2154 2155 2156 2157 2164 2165 2166 2167 2168 2169 2188 2189 2190 2191 2192 2193 2248 2249 2250 2251 2252 2253 2968 2969 2970
1435 1436 1437 1621 1622 1623 1627 1628 1629 2005 2006 2007 2011 2012 2013 2152 2153 2154 2155 2156 2157 2164 2165 2166 2167 2168 2169 2188 2189 2190 2191 2192 2193 2248 2249 2250 2251 2252 2253 2971 2972 2973
1435 1436 1437 1621 1622 1623 1627 1628 1629 2005 2006 2007 2011 2012 2013 2152 2153 2154 2155 2156 2157 2164 2165 2166 2167 2168 2169 2188 2189 2190 2191 2192 2193 2248 2249 2250 2251 2252 2253 2971 2972 2973
1435 1436 1437 1621 1622 1623 1627 1628 1629 2005 2006 2007 2011 2012 2013 2152 2153 2154 2155 2156 2157 2164 2165 2166 2167 2168 2169 2188 2189 2190 2191 2192 2193 2248 2249 2250 2251 2252 2253 2971 2972 2973
1438 1439 1440 1624 1625 1626 1630 1631 1632 2008 2009 2010 2014 2015 2016 2149 2150 2151 2158 2159 2160 2161 2162 2163 2170 2171 2172 2185 2186 2187 2194 2195 2196 2245 2246 2247 2254 2255 2256 2974 2975 2976
1438 1439 1440 1624 1625 1626 1630 1631 1632 2008 2009 2010 2014 2015 2016 2149 2150 2151 2158 2159 2160 2161 2162 2163 2170 2171 2172 2185 2186 2187 2194 2195 2196 2245 2246 2247 2254 2255 2256 2974 2975 2976
1438 1439 1440 1624 1625 1626 1630 1631 1632 2008 2009 2010 2014 2015 2016 2149 2150 2151 2158 2159 2160 2161 2162 2163 2170 2171 2172 2185 2186 2187 2194 2195 2196 2245 2246 2247 2254 2255 2256 2974 2975 2976
1441 1442 1443 1633 1634 1635 1639 1640 1641 2017 2018 2019 2023 2024 2025 2161 2162 2163 2170 2171 2172 2221 2222 2223 2230 2231 2232 2245 2246 2247 2254 2255 2256 2257 2258 2259 2266 2267 2268 2977 2978 2979
1441 1442 1443 1633 1634 1635 1639 1640 1641 2017 2018 2019 2023 2024 2025 2161 2162 2163 2170 2171 2172 2221 2222 2223 2230 2231 2232 2245 2246 2247 2254 2255 2256 2257 2258 2259 2266 2267 2268 2977 2978 2979
1441 1442 1443 1633 1634 1635 1639 1640 1641 2017 2018 2019 2023 2024 2025 2161 2162 2163 2170 2171 2172 2221 2222 2223 2230 2231 2232 2245 2246 2247 2254 2255 2256 2257 2258 2259 2266 2267 2268 2977 2978 2979
1444 1445 1446 1636 1637 1638 1642 1643 1644 2020 2021 2022 2026 2027 2028 2164 2165 2166 2167 2168 2169 2224 2225 2226 2227 2228 2229 2248 2249 2250 2251 2252 2253 2260 2261 2262 2263 2264 2265 2980 2981 2982
1444 1445 1446 1636 1637 1638 1642 1643 1644 2020 2021 2022 2026 2027 2028 2164 2165 2166 2167 2168 2169 2224 2225 2226 2227 2228 2229 2248 2249 2250 2251 2252 2253 2260 2261 2262 2263 2264 2265 2980 2981 2982
1444 1445 1446 1636 1637 1638 1642 1643 1644 2020 2021 2022 2026 2027 2028 2164 2165 2166 2167 2168 2169 2224 2225 2226 2227 2228 2229 2248 2249 2250 2251 2252 2253 2260 2261 2262 2263 2264 2265 2980 2981 2982
1447 1448 1449 1633 1634 1635 1639 1640 1641 2017 2018 2019 2023 2024 2025 2164 2165 2166 2167 2168 2169 2224 2225 2226 2227 2228 2229 2248 2249 2250 2251 2252 2253 2260 2261 2262 2263 2264 2265 2983 2984 2985
1447 1448 1449 1633 1634 1635 1639 1640 1641 2017 2018 2019 2023 2024 2025 2164 2165 2166 2167 2168 2169 2224 2225 2226 2227 2228 2229 2248 2249 2250 2251 2252 2253 2260 2261 2262 2263 2264 2265 2983 2984 2985
1447 1448 1449 1633 1634 1635 1639 1640 1641 2017 2018 2019 2023 2024 2025 2164 2165 2166 2167 2168 2169 2224 2225 2226 2227 2228 2229 2248 2249 2250 2251 2252 2253 2260 2261 2262 2263 2264 2265 2983 2984 2985
1450 1451 1452 1636 1637 1638 1642 1643 1644 2020 2021 2022 2026 2027 2028 2161 2162 2163 2170 2171 2172 2221 2222 2223 2230 2231 2232 2245 2246 2247 2254 2255 2256 2257 2258 2259 2266 2267 2268 2986 2987 2988
1450 1451 1452 1636 1637 1638 1642 1643 1644 2020 2021 2022 2026 2027 2028 2161 2162 2163 2170 2171 2172 2221 2222 2223 2230 2231 2232 2245 2246 2247 2254 2255 2256 2257 2258 2259 2266 2267 2268 2986 2987 2988
1450 1451 1452 1636 1637 1638 1642 1643 1644 2020 2021 2022 2026 2027 2028 2161 2162 2163 2170 2171 2172 2221 2222 2223 2230 2231 2232 2245 2246 2247 2254 2255 2256 2257 2258 2259 2266 2267 2268 2986 2987 2988
1453 1454 1455 1645 1646 1647 1651 1652 1653 2029 2030 2031 2035 2036 2037 2173 2174 2175 2182 2183 2184 2209 2210 2211 2218 2219 2220 2233 2234 2235 2242 2243 2244 2269 2270 2271 2278 2279 2280 2989 2990 2991
1453 1454 1455 1645 1646 1647 1651 1652 1653 2029 2030 2031 2035 2036 2037 2173 2174 2175 2182 2183 2184 2209 2210 2211 2218 2219 2220 2233 2234 2235 2242 2243 2244 2269 2270 2271 2278 2279 2280 2989 2990 2991
1453 1454 1455 1645 1646 1647 1651 1652 1653 2029 2030 2031 2035 2036 2037 2173 2174 2175 2182 2183 2184 2209 2210 2211 2218 2219 2220 2233 2234 2235 2242 2243 2244 2269 2270 2271 2278 2279 2280 2989 2990 2991
1456 1457 1458 1648 1649 1650 1654 1655 1656 2032 2033 2034 2038 2039 2040 2176 2177 2178 2179 2180 2181 2212 2213 2214 2215 2216 2217 2236 2237 2238 2239 2240 2241 2272 2273 2274 2275 2276 2277 2992 2993 2994
1456 1457 1458 1648 1649 1650 1654 1655 1656 2032 2033 2034 2038 2039 2040 2176 2177 2178 2179 2180 2181 2212 2213 2214 2215 2216 2217 2236 2237 2238 2239 2240 2241 2272 2273 2274 2275 2276 2277 2992 2993 2994
1456 1457 1458 1648 1649 1650 1654 1655 1656 2032 2033 2034 2038 2039 2040 2176 2177 2178 2179 2180 2181 2212 2213 2214 2215 2216 2217 2236 2237 2238 2239 2240 2241 2272 2273 2274 2275 2276 2277 2992 2993 2994
1459 1460 1461 1645 1646 1647 1651 1652 1653 2029 2030 2031 2035 2036 2037 2176 2177 2178 2179 2180 2181 2212 2213 2214 2215 2216 2217 2236 2237 2238 2239 2240 2241 2272 2273 2274 2275 2276 2277 2995 2996 2997
1459 1460 1461 1645 1646 1647 1651 1652 1653 2029 2030 2031 2035 2036 2037 2176 2177 2178 2179 2180 2181 2212 2213 2214 2215 2216 2217 2236 2237 2238 2239 2240 2241 2272 2273 2274 2275 2276 2277 2995 2996 2997
1459 1460 1461 1645 1646 1647 1651 1652 1653 2029 2030 2031 2035 2036 2037 2176 2177 2178 2179 2180 2181 2212 2213 2214 2215 2216 2217 2236 2237 2238 2239 2240 2241 2272 2273 2274 2275 2276 2277 2995 2996 2997
1462 1463 1464 1648 1649 1650 1654 1655 1656 2032 2033 2034 2038 2039 2040 2173 2174 2175 2182 2183 2184 2209 2210 2211 2218 2219 2220 2233 2234 2235 2242 2243 2244 2269 2270 2271 2278 2279 2280 2998 2999 3000
1462 1463 1464 1648 1649 1650 1654 1655 1656 2032 2033 2034 2038 2039 2040 2173 2174 2175 2182 2183 2184 2209 2210 2211 2218 2219 2220 2233 2234 2235 2242 2243 2244 2269 2270 2271 2278 2279 2280 2998 2999 3000
1462 1463 1464 1648 1649 1650 1654 1655 1656 2032 2033 2034 2038 2039 2040 2173 2174 2175 2182 2183 2184 2209 2210 2211 2218 2219 2220 2233 2234 2235 2242 2243 2244 2269 2270 2271 2278 2279 2280 2998 2999 3000
1465 1466 1467 1657 1658 1659 1663 1664 1665 2041 2042 2043 2047 2048 2049 2185 2186 2187 2194 2195 2196 2221 2222 2223 2230 2231 2232 2245 2246 2247 2254 2255 2256 2281 2282 2283 2290 2291 2292 3001 3002 3003
1465 1466 1467 1657 1658 1659 1663 1664 1665 2041 2042 2043 2047 2048 2049 2185 2186 2187 2194 2195 2196 2221 2222 2223 2230 2231 2232 2245 2246 2247 2254 2255 2256 2281 2282 2283 2290 2291 2292 3001 3002 3003
1465 1466 1467 1657 1658 1659 1663 1664 1665 2041 2042 2043 2047 2048 2049 2185 2186 2187 2194 2195 2196 2221 2222 2223 2230 2231 2232 2245 2246 2247 2254 2255 2256 2281 2282 2283 2290 2291 2292 3001 3002 3003
1468 1469 1470 1660 1661 1662 1666 1667 1668 2044 2045 2046 2050 2051 2052 2188 2189 2190 2191 2192 2193 2224 2225 2226 2227 2228 2229 2248 2249 2250 2251 2252 2253 2284 2285 2286 2287 2288 2289 3004 3005 3006
1468 1469 1470 1660 1661 1662 1666 1667 1668 2044 2045 2046 2050 2051 2052 2188 2189 2190 2191 2192 2193 2224 2225 2226 2227 2228 2229 2248 2249 2250 2251 2252 2253 2284 2285 2286 2287 2288 2289 3004 3005 3006
1468 1469 1470 1660 1661 1662 1666 1667 1668 2044 2045 2046 2050 2051 2052 2188 2189 2190 2191 2192 2193 2224 2225 2226 2227 2228 2229 2248 2249 2250 2251 2252 2253 2284 2285 2286 2287 2288 2289 3004 3005 3006
1471 1472 1473 1657 1658 1659 1663 1664 1665 2041 2042 2043 2047 2048 2049 2188 2189 2190 2191 2192 2193 2224 2225 2226 2227 2228 2229 2248 2249 2250 2251 2252 2253 2284 2285 2286 2287 2288 2289 3007 3008 3009
1471 1472 1473 1657 1658 1659 1663 1664 1665 2041 2042 2043 2047 2048 2049 2188 2189 2190 2191 2192 2193 2224 2225 2226 2227 2228 2229 2248 2249 2250 2251 2252 2253 2284 2285 2286 2287 2288 2289 3007 3008 3009
1471 1472 1473 1657 1658 1659 1663 1664 1665 2041 2042 2043 2047 2048 2049 2188 2189 2190 2191 2192 2193 2224 2225 2226 2227 2228 2229 2248 2249 2250 2251 2252 2253 2284 2285 2286 2287 2288 2289 3007 3008 3009
1474 1475 1476 1660 1661 1662 1666 1667 1668 2044 2045 2046 2050 2051 2052 2185 2186 2187 2194 2195 2196 2221 2222 2223 2230 2231 2232 2245 2246 2247 2254 2255 2256 2281 2282 2283 2290 2291 2292 3010 3011 3012
1474 1475 1476 1660 1661 1662 1666 1667 1668 2044 2045 2046 2050 2051 2052 2185 2186 2187 2194 2195 2196 2221 2222 2223 2230 2231 2232 2245 2246 2247 2254 2255 2256 2281 2282 2283 2290 2291 2292 3010 3011 3012
1474 1475 1476 1660 1661 1662 1666 1667 1668 2044 2045 2046 2050 2051 2052 2185 2186 2187 2194 2195 2196 2221 2222 2223 2230 2231 2232 2245 2246 2247 2254 2255 2256 2281 2282 2283 2290 2291 2292 3010 3011 3012
1477 1478 1479 1669 1670 1671 1675 1676 1677 2053 2054 2055 2059 2060 2061 2197 2198 2199 2206 2207 2208 2209 2210 2211 2218 2219 2220 2233 2234 2235 2242 2243 2244 2293 2294 2295 2302 2303 2304 3013 3014 3015
1477 1478 1479 1669 1670 1671 1675 1676 1677 2053 2054 2055 2059 2060 2061 2197 2198 2199 2206 2207 2208 2209 2210 2211 2218 2219 2220 2233 2234 2235 2242 2243 2244 2293 2294 2295 2302 2303 2304 3013 3014 3015
1477 1478 1479 1669 1670 1671 1675 1676 1677 2053 2054 2055 2059 2060 2061 2197 2198 2199 2206 2207 2208 2209 2210 2211 2218 2219 2220 2233 2234 2235 2242 2243 2244 2293 2294 2295 2302 2303 2304 3013 3014 3015
1480 1481 1482 1672 1673 1674 1678 1679 1680 2056 2057 2058 2062 2063 2064 2200 2201 2202 2203 2204 2205 2212 2213 2214 2215 2216 2217 2236 2237 2238 2239 2240 2241 2296 2297 2298 2299 2300 2301 3016 3017 3018
1480 1481 1482 1672 1673 1674 1678 1679 1680 2056 2057 2058 2062 2063 2064 2200 2201 2202 2203 2204 2205 2212 2213 2214 2215 2216 2217 2236 2237 2238 2239 2240 2241 2296 2297 2298 2299 2300 2301 3016 3017 3018
1480 1481 1482 1672 1673 1674 1678 1679 1680 2056 2057 2058 2062 2063 2064 2200 2201 2202 2203 2204 2205 2212 2213 2214 2215 2216 2217 2236 2237 2238 2239 2240 2241 2296 2297 2298 2299 2300 2301 3016 3017 3018
1483 1484 1485 1669 1670 1671 1675 1676 1677 2053 2054 2055 2059 2060 2061 2200 2201 2202 2203 2204 2205 2212 2213 2214 2215 2216 2217 2236 2237 2238 2239 2240 2241 2296 2297 2298 2299 2300 2301 3019 3020 3021
1483 1484 1485 1669 1670 1671 1675 1676 1677 2053 2054 2055 2059 2060 2061 2200 2201 2202 2203 2204 2205 2212 2213 2214 2215 2216 2217 2236 2237 2238 2239 2240 2241 2296 2297 2298 2299 2300 2301 3019 3020 3021
1483 1484 1485 1669 1670 1671 1675 1676 1677 2053 2054 2055 2059 2060 2061 2200 2201 2202 2203 2204 2205 2212 2213 2214 2215 2216 2217 2236 2237 2238 2239 2240 2241 2296 2297 2298 2299 2300 2301 3019 3020 3021
1486 1487 1488 1672 1673 1674 1678 1679 1680 2056 2057 2058 2062 2063 2064 2197 2198 2199 2206 2207 2208 2209 2210 2211 2218 2219 2220 2233 2234 2235 2242 2243 2244 2293 2294 2295 2302 2303 2304 3022 3023 3024
1486 1487 1488 1672 1673 1674 1678 1679 1680 2056 2057 2058 2062 2063 2064 2197 2198 2199 2206 2207 2208 2209 2210 2211 2218 2219 2220 2233 2234 2235 2242 2243 2244 2293 2294 2295 2302 2303 2304 3022 3023 3024
1486 1487 1488 1672 1673 1674 1678 1679 1680 2056 2057 2058 2062 2063 2064 2197 2198 2199 2206 2207 2208 2209 2210 2211 2218 2219 2220 2233 2234 2235 2242 2243 2244 2293 2294 2295 2302 2303 2304 3022 3023 3024
1489 1490 1491 1681 1682 1683 1687 1688 1689 2065 2066 2067 2071 2072 2073 2113 2114 2115 2122 2123 2124 2209 2210 2211 2218 2219 2220 2269 2270 2271 2278 2279 2280 2293 2294 2295 2302 2303 2304 3025 3026 3027
1489 1490 1491 1681 1682 1683 1687 1688 1689 2065 2066 2067 2071 2072 2073 2113 2114 2115 2122 2123 2124 2209 2210 2211 2218 2219 2220 2269 2270 2271 2278 2279 2280 2293 2294 2295 2302 2303 2304 3025 3026 3027
1489 1490 1491 1681 1682 1683 1687 1688 1689 2065 2066 2067 2071 2072 2073 2113 2114 2115 2122 2123 2124 2209 2210 2211 2218 2219 2220 2269 2270 2271 2278 2279 2280 2293 2294 2295 2302 2303 2304 3025 3026 3027
1492 1493 1494 1684 1685 1686 1690 1691 1692 2068 2069 2070 2074 2075 2076 2116 2117 2118 2119 2120 2121 2212 2213 2214 2215 2216 2217 2272 2273 2274 2275 2276 2277 2296 2297 2298 2299 2300 2301 3028 3029 3030
1492 1493 1494 1684 1685 1686 1690 1691 1692 2068 2069 2070 2074 2075 2076 2116 2117 2118 2119 2120 2121 2212 2213 2214 2215 2216 2217 2272 2273 2274 2275 2276 2277 2296 2297 2298 2299 2300 2301 3028 3029 3030
1492 1493 1494 1684 1685 1686 1690 1691 1692 2068 2069 2070 2074 2075 2076 2116 2117 2118 2119 2120 2121 2212 2213 2214 2215 2216 2217 2272 2273 2274 2275 2276 2277 2296 2297 2298 2299 2300 2301 3028 3029 3030
1495 1496 1497 1681 1682 1683 1687 1688 1689 2065 2066 2067 2071 2072 2073 2116 2117 2118 2119 2120 2121 2212 2213 2214 2215 2216 2217 2272 2273 2274 2275 2276 2277 2296 2297 2298 2299 2300 2301 3031 3032 3033
1495 1496 1497 1681 1682 1683 1687 1688 1689 2065 2066 2067 2071 2072 2073 2116 2117 2118 2119 2120 2121 2212 2213 2214 2215 2216 2217 2272 2273 2274 2275 2276 2277 2296 2297 2298 2299 2300 2301 3031 3032 3033
1495 1496 1497 1681 1682 1683 1687 1688 1689 2065 2066 2067 2071 2072 2073 2116 2117 2118 2119 2120 2121 2212 2213 2214 2215 2216 2217 2272 2273 2274 2275 2276 2277 2296 2297 2298 2299 2300 2301 3031 3032 3033
1498 1499 1500 1684 1685 1686 1690 1691 1692 2068 2069 2070 2074 2075 2076 2113 2114 2115 2122 2123 2124 2209 2210 2211 2218 2219 2220 2269 2270 2271 2278 2279 2280 2293 2294 2295 2302 2303 2304 3034 3035 3036
1498 1499 1500 1684 1685 1686 1690 1691 1692 2068 2069 2070 2074 2075 2076 2113 2114 2115 2122 2123 2124 2209 2210 2211 2218 2219 2220 2269 2270 2271 2278 2279 2280 2293 2294 2295 2302 2303 2304 3034 3035 3036
1498 1499 1500 1684 1685 1686 1690 1691 1692 2068 2069 2070 2074 2075 2076 2113 2114 2115 2122 2123 2124 2209 2210 2211 2218 2219 2220 2269 2270 2271 2278 2279 2280 2293 2294 2295 2302 2303 2304 3034 3035 3036
1501 1502 1503 1693 1694 1695 1699 1700 1701 2077 2078 2079 2083 2084 2085 2125 2126 2127 2134 2135 2136 2221 2222 2223 2230 2231 2232 2257 2258 2259 2266 2267 2268 2281 2282 2283 2290 2291 2292 3037 3038 3039
1501 1502 1503 1693 1694 1695 1699 1700 1701 2077 2078 2079 2083 2084 2085 2125 2126 2127 2134 2135 2136 2221 2222 2223 2230 2231 2232 2257 2258 2259 2266 2267 2268 2281 2282 2283 2290 2291 2292 3037 3038 3039
1501 1502 1503 1693 1694 1695 1699 1700 1701 2077 2078 2079 2083 2084 2085 2125 2126 2127 2134 2135 2136 2221 2222 2223 2230 2231 2232 2257 2258 2259 2266 2267 2268 2281 2282 2283 2290 2291 2292 3037 3038 3039
1504 1505 1506 1696 1697 1698 1702 1703 1704 2080 2081 2082 2086 2087 2088 2128 2129 2130 2131 2132 2133 2224 2225 2226 2227 2228 2229 2260 2261 2262 2263 2264 2265 2284 2285 2286 2287 2288 2289 3040 3041 3042
1504 1505 1506 1696 1697 1698 1702 1703 1704 2080 2081 2082 2086 2087 2088 2128 2129 2130 2131 2132 2133 2224 2225 2226 2227 2228 2229 2260 2261 2262 2263 2264 2265 2284 2285 2286 2287 2288 2289 3040 3041 3042
1504 1505 1506 1696 1697 1698 1702 1703 1704 2080 2081 2082 2086 2087 2088 2128 2129 2130 2131 2132 2133 2224 2225 2226 2227 2228 2229 2260 2261 2262 2263 2264 2265 2284 2285 2286 2287 2288 2289 3040 3041 3042
1507 1508 1509 1693 1694 1695 1699 1700 1701 2077 2078 2079 2083 2084 2085 2128 2129 2130 2131 2132 2133 2224 2225 2226 2227 2228 2229 2260 2261 2262 2263 2264 2265 2284 2285 2286 2287 2288 2289 3043 3044 3045
1507 1508 1509 1693 1694 1695 1699 1700 1701 2077 2078 2079 2083 2084 2085 2128 2129 2130 2131 2132 2133 2224 2225 2226 2227 2228 2229 2260 2261 2262 2263 2264 2265 2284 2285 2286 2287 2288 2289 3043 3044 3045
1507 1508 1509 1693 1694 1695 1699 1700 1701 2077 2078 2079 2083 2084 2085 2128 2129 2130 2131 2132 2133 2224 2225 2226 2227 2228 2229 2260 2261 2262 2263 2264 2265 2284 2285 2286 2287 2288 2289 3043 3044 3045
1510 1511 1512 1696 1697 1698 1702 1703 1704 2080 2081 2082 2086 2087 2088 2125 2126 2127 2134 2135 2136 2221 2222 2223 2230 2231 2232 2257 2258 2259 2266 2267 2268 2281 2282 2283 2290 2291 2292 3046 3047 3048
1510 1511 1512 1696 1697 1698 1702 1703 1704 2080 2081 2082 2086 2087 2088 2125 2126 2127 2134 2135 2136 2221 2222 2223 2230 2231 2232 2257 2258 2259 2266 2267 2268 2281 2282 2283 2290 2291 2292 3046 3047 3048
1510 1511 1512 1696 1697 1698 1702 1703 1704 2080 2081 2082 2086 2087 2088 2125 2126 2127 2134 2135 2136 2221 2222 2223 2230 2231 2232 2257 2258 2259 2266 2267 2268 2281 2282 2283 2290 2291 2292 3046 3047 3048
1513 1514 1515 1705 1706 1707 1711 1712 1713 2089 2090 2091 2095 2096 2097 2137 2138 2139 2146 2147 2148 2233 2234 2235 2242 2243 2244 2269 2270 2271 2278 2279 2280 2293 2294 2295 2302 2303 2304 3049 3050 3051
1513 1514 1515 1705 1706 1707 1711 1712 1713 2089 2090 2091 2095 2096 2097 2137 2138 2139 2146 2147 2148 2233 2234 2235 2242 2243 2244 2269 2270 2271 2278 2279 2280 2293 2294 2295 2302 2303 2304 3049 3050 3051
1513 1514 1515 1705 1706 1707 1711 1712 1713 2089 2090 2091 2095 2096 2097 2137 2138 2139 2146 2147 2148 2233 2234 2235 2242 2243 2244 2269 2270 2271 2278 2279 2280 2293 2294 2295 2302 2303 2304 3049 3050 3051
1516 1517 1518 1708 1709 1710 1714 1715 1716 2092 2093 2094 2098 2099 2100 2140 2141 2142 2143 2144 2145 2236 2237 2238 2239 2240 2241 2272 2273 2274 2275 2276 2277 2296 2297 2298 2299 2300 2301 3052 3053 3054
1516 1517 1518 1708 1709 1710 1714 1715 1716 2092 2093 2094 2098 2099 2100 2140 2141 2142 2143 2144 2145 2236 2237 2238 2239 2240 2241 2272 2273 2274 2275 2276 2277 2296 2297 2298 2299 2300 2301 3052 3053 3054
1516 1517 1518 1708 1709 1710 1714 1715 1716 2092 2093 2094 2098 2099 2100 2140 2141 2142 2143 2144 2145 2236 2237 2238 2239 2240 2241 2272 2273 2274 2275 2276 2277 2296 2297 2298 2299 2300 2301 3052 3053 3054
1519 1520 1521 1705 1706 1707 1711 1712 1713 2089 2090 2091 2095 2096 2097 2140 2141 2142 2143 2144 2145 2236 2237 2238 2239 2240 2241 2272 2273 2274 2275 2276 2277 2296 2297 2298 2299 2300 2301 3055 3056 3057
1519 1520 1521 1705 1706 1707 1711 1712 1713 2089 2090 2091 2095 2096 2097 2140 2141 2142 2143 2144 2145 2236 2237 2238 2239 2240 2241 2272 2273 2274 2275 2276 2277 2296 2297 2298 2299 2300 2301 3055 3056 3057
1519 1520 1521 1705 1706 1707 1711 1712 1713 2089 2090 2091 2095 2096 2097 2140 2141 2142 2143 2144 2145 2236 2237 2238 2239 2240 2241 2272 2273 2274 2275 2276 2277 2296 2297 2298 2299 2300 2301 3055 3056 3057
1522 1523 1524 1708 1709 1710 1714 1715 1716 2092 2093 2094 2098 2099 2100 2137 2138 2139 2146 2147 2148 2233 2234 2235 2242 2243 2244 2269 2270 2271 2278 2279 2280 2293 2294 2295 2302 2303 2304 3058 3059 3060
1522 1523 1524 1708 1709 1710 1714 1715 1716 2092 2093 2094 2098 2099 2100 2137 2138 2139 2146 2147 2148 2233 2234 2235 2242 2243 2244 2269 2270 2271 2278 2279 2280 2293 2294 2295 2302 2303 2304 3058 3059 3060
1522 1523 1524 1708 1709 1710 1714 1715 1716 2092 2093 2094 2098 2099 2100 2137 2138 2139 2146 2147 2148 2233 2234 2235 2242 2243 2244 2269 2270 2271 2278 2279 2280 2293 2294 2295 2302 2303 2304 3058 3059 3060
1525 1526 1527 1717 1718 1719 1723 1724 1725 2101 2102 2103 2107 2108 2109 2149 2150 2151 2158 2159 2160 2245 2246 2247 2254 2255 2256 2257 2258 2259 2266 2267 2268 2281 2282 2283 2290 2291 2292 3061 3062 3063
1525 1526 1527 1717 1718 1719 1723 1724 1725 2101 2102 2103 2107 2108 2109 2149 2150 2151 2158 2159 2160 2245 2246 2247 2254 2255 2256 2257 2258 2259 2266 2267 2268 2281 2282 2283 2290 2291 2292 3061 3062 3063
1525 1526 1527 1717 1718 1719 1723 1724 1725 2101 2102 2103 2107 2108 2109 2149 2150 2151 2158 2159 2160 2245 2246 2247 2254 2255 2256 2257 2258 2259 2266 2267 2268 2281 2282 2283 2290 2291 2292 3061 3062 3063
1528 1529 1530 1720 1721 1722 1726 1727 1728 2104 2105 2106 2110 2111 2112 2152 2153 2154 2155 2156 2157 2248 2249 2250 2251 2252 2253 2260 2261 2262 2263 2264 2265 2284 2285 2286 2287 2288 2289 3064 3065 3066
1528 1529 1530 1720 1721 1722 1726 1727 1728 2104 2105 2106 2110 2111 2112 2152 2153 2154 2155 2156 2157 2248 2249 2250 2251 2252 2253 2260 2261 2262 2263 2264 2265 2284 2285 2286 2287 2288 2289 3064 3065 3066
1528 1529 1530 1720 1721 1722 1726 1727 1728 2104 2105 2106 2110 2111 2112 2152 2153 2154 2155 2156 2157 2248 2249 2250 2251 2252 2253 2260 2261 2262 2263 2264 2265 2284 2285 2286 2287 2288 2289 3064 3065 3066
1531 1532 1533 1717 1718 1719 1723 1724 1725 2101 2102 2103 2107 2108 2109 2152 2153 2154 2155 2156 2157 2248 2249 2250 2251 2252 2253 2260 2261 2262 2263 2264 2265 2284 2285 2286 2287 2288 2289 3067 3068 3069
1531 1532 1533 1717 1718 1719 1723 1724 1725 2101 2102 2103 2107 2108 2109 2152 2153 2154 2155 2156 2157 2248 2249 2250 2251 2252 2253 2260 2261 2262 2263 2264 2265 2284 2285 2286 2287 2288 2289 3067 3068 3069
1531 1532 1533 1717 1718 1719 1723 1724 1725 2101 2102 2103 2107 2108 2109 2152 2153 2154 2155 2156 2157 2248 2249 2250 2251 2252 2253 2260 2261 2262 2263 2264 2265 2284 2285 2286 2287 2288 2289 3067 3068 3069
1534 1535 1536 1720 1721 1722 1726 1727 1728 2104 2105 2106 2110 2111 2112 2149 2150 2151 2158 2159 2160 2245 2246 2247 2254 2255 2256 2257 2258 2259 2266 2267 2268 2281 2282 2283 2290 2291 2292 3070 3071 3072
1534 1535 1536 1720 1721 1722 1726 1727 1728 2104 2105 2106 2110 2111 2112 2149 2150 2151 2158 2159 2160 2245 2246 2247 2254 2255 2256 2257 2258 2259 2266 2267 2268 2281 2282 2283 2290 2291 2292 3070 3071 3072
1534 1535 1536 1720 1721 1722 1726 1727 1728 2104 2105 2106 2110 2111 2112 2149 2150 2151 2158 2159 2160 2245 2246 2247 2254 2255 2256 2257 2258 2259 2266 2267 2268 2281 2282 2283 2290 2291 2292 3070 3071 3072
1 2 3 1537 1538 1539 2317 2318 2319 2326 2327 2328 2341 2342 2343 2350 2351 2352 2353 2354 2355 2362 2363 2364 2449 2450 2451 2458 2459 2460 2497 2498 2499 2503 2504 2505 2881 2882 2883 2887 2888 2889
1 2 3 1537 1538 1539 2317 2318 2319 2326 2327 2328 2341 2342 2343 2350 2351 2352 2353 2354 2355 2362 2363 2364 2449 2450 2451 2458 2459 2460 2497 2498 2499 2503 2504 2505 2881 2882 2883 2887 2888 2889
1 2 3 1537 1538 1539 2317 2318 2319 2326 2327 2328 2341 2342 2343 2350 2351 2352 2353 2354 2355 2362 2363 2364 2449 2450 2451 2458 2459 2460 2497 2498 2499 2503 2504 2505 2881 2882 2883 2887 2888 2889
4 5 6 1540 1541 1542 2320 2321 2322 2323 2324 2325 2344 2345 2346 2347 2348 2349 2356 2357 2358 2359 2360 2361 2452 2453 2454 2455 2456 2457 2500 2501 2502 2506 2507 2508 2884 2885 2886 2890 2891 2892
4 5 6 1540 1541 1542 2320 2321 2322 2323 2324 2325 2344 2345 2346 2347 2348 2349 2356 2357 2358 2359 2360 2361 2452 2453 2454 2455 2456 2457 2500 2501 2502 2506 2507 2508 2884 2885 2886 2890 2891 2892
4 5 6 1540 1541 1542 2320 2321 2322 2323 2324 2325 2344 2345 2346 2347 2348 2349 2356 2357 2358 2359 2360 2361 2452 2453 2454 2455 2456 2457 2500 2501 2502 2506 2507 2508 2884 2885 2886 2890 2891 2892
7 8 9 1543 1544 1545 2320 2321 2322 2323 2324 2325 2344 2345 2346 2347 2348 2349 2356 2357 2358 2359 2360 2361 2452 2453 2454 2455 2456 2457 2497 2498 2499 2503 2504 2505 2881 2882 2883 2887 2888 2889
7 8 9 1543 1544 1545 2320 2321 2322 2323 2324 2325 2344 2345 2346 2347 2348 2349 2356 2357 2358 2359 2360 2361 2452 2453 2454 2455 2456 2457 2497 2498 2499 2503 2504 2505 2881 2882 2883 2887 2888 2889
7 8 9 1543 1544 1545 2320 2321 2322 2323 2324 2325 2344 2345 2346 2347 2348 2349 2356 2357 2358 2359 2360 2361 2452 2453 2454 2455 2456 2457 2497 2498 2499 2503 2504 2505 2881 2882 2883 2887 2888 2889
10 11 12 1546 1547 1548 2317 2318 2319 2326 2327 2328 2341 2342 2343 2350 2351 2352 2353 2354 2355 2362 2363 2364 2449 2450 2451 2458 2459 2460 2500 2501 2502 2506 2507 2508 2884 2885 2886 2890 2891 2892
10 11 12 1546 1547 1548 2317 2318 2319 2326 2327 2328 2341 2342 2343 2350 2351 2352 2353 2354 2355 2362 2363 2364 2449 2450 2451 2458 2459 2460 2500 2501 2502 2506 2507 2508 2884 2885 2886 2890 2891 2892
10 11 12 1546 1547 1548 2317 2318 2319 2326 2327 2328 2341 2342 2343 2350 2351 2352 2353 2354 2355 2362 2363 2364 2449 2450 2451 2458 2459 2460 2500 2501 2502 2506 2507 2508 2884 2885 2886 2890 2891 2892
13 14 15 1549 1550 1551 2305 2306 2307 2314 2315 2316 2329 2330 2331 2338 2339 2340 2365 2366 2367 2374 2375 2376 2461 2462 2463 2470 2471 2472 2509 2510 2511 2515 2516 2517 2893 2894 2895 2899 2900 2901
13 14 15 1549 1550 1551 2305 2306 2307 2314 2315 2316 2329 2330 2331 2338 2339 2340 2365 2366 2367 2374 2375 2376 2461 2462 2463 2470 2471 2472 2509 2510 2511 2515 2516 2517 2893 2894 2895 2899 2900 2901
13 14 15 1549 1550 1551 2305 2306 2307 2314 2315 2316 2329 2330 2331 2338 2339 2340 2365 2366 2367 2374 2375 2376 2461 2462 2463 2470 2471 2472 2509 2510 2511 2515 2516 2517 2893 2894 2895 2899 2900 2901
16 17 18 1552 1553 1554 2308 2309 2310 2311 2312 2313 2332 2333 2334 2335 2336 2337 2368 2369 2370 2371 2372 2373 2464 2465 2466 2467 2468 2469 2512 2513 2514 2518 2519 2520 2896 2897 2898 2902 2903 2904
16 17 18 1552 1553 1554 2308 2309 2310 2311 2312 2313 2332 2333 2334 2335 2336 2337 2368 2369 2370 2371 2372 2373 2464 2465 2466 2467 2468 2469 2512 2513 2514 2518 2519 2520 2896 2897 2898 2902 2903 2904
16 17 18 1552 1553 1554 2308 2309 2310 2311 2312 2313 2332 2333 2334 2335 2336 2337 2368 2369 2370 2371 2372 2373 2464 2465 2466 2467 2468 2469 2512 2513 2514 2518 2519 2520 2896 2897 2898 2902 2903 2904
19 20 21 1555 1556 1557 2308 2309 2310 2311 2312 2313 2332 2333 2334 2335 2336 2337 2368 2369 2370 2371 2372 2373 2464 2465 2466 2467 2468 2469 2509 2510 2511 2515 2516 2517 2893 2894 2895 2899 2900 2901
19 20 21 1555 1556 1557 2308 2309 2310 2311 2312 2313 2332 2333 2334 2335 2336 2337 2368 2369 2370 2371 2372 2373 2464 2465 2466 2467 2468 2469 2509 2510 2511 2515 2516 2517 2893 2894 2895 2899 2900 2901
19 20 21 1555 1556 1557 2308 2309 2310 2311 2312 2313 2332 2333 2334 2335 2336 2337 2368 2369 2370 2371 2372 2373 2464 2465 2466 2467 2468 2469 2509 2510 2511 2515 2516 2517 2893 2894 2895 2899 2900 2901
22 23 24 1558 1559 1560 2305 2306 2307 2314 2315 2316 2329 2330 2331 2338 2339 2340 2365 2366 2367 2374 2375 2376 2461 2462 2463 2470 2471 2472 2512 2513 2514 2518 2519 2520 2896 2897 2898 2902 2903 2904
22 23 24 1558 1559 1560 2305 2306 2307 2314 2315 2316 2329 2330 2331 2338 2339 2340 2365 2366 2367 2374 2375 2376 2461 2462 2463 2470 2471 2472 2512 2513 2514 2518 2519 2520 2896 2897 2898 2902 2903 2904
22 23 24 1558 1559 1560 2305 2306 2307 2314 2315 2316 2329 2330 2331 2338 2339 2340 2365 2366 2367 2374 2375 2376 2461 2462 2463 2470 2471 2472 2512 2513 2514 2518 2519 2520 2896 2897 2898 2902 2903 2904
25 26 27 1561 1562 1563 2317 2318 2319 2326 2327 2328 2341 2342 2343 2350 2351 2352 2377 2378 2379 2386 2387 2388 2473 2474 2475 2482 2483 2484 2521 2522 2523 2527 2528 2529 2905 2906 2907 2911 2912 2913
25 26 27 1561 1562 1563 2317 2318 2319 2326 2327 2328 2341 2342 2343 2350 2351 2352 2377 2378 2379 2386 2387 2388 2473 2474 2475 2482 2483 2484 2521 2522 2523 2527 2528 2529 2905 2906 2907 2911 2912 2913
25 26 27 1561 1562 1563 2317 2318 2319 2326 2327 2328 2341 2342 2343 2350 2351 2352 2377 2378 2379 2386 2387 2388 2473 2474 2475 2482 2483 2484 2521 2522 2523 2527 2528 2529 2905 2906 2907 2911 2912 2913
28 29 30 1564 1565 1566 2320 2321 2322 2323 2324 2325 2344 2345 2346 2347 2348 2349 2380 2381 2382 2383 2384 2385 2476 2477 2478 2479 2480 2481 2524 2525 2526 2530 2531 2532 2908 2909 2910 2914 2915 2916
28 29 30 1564 1565 1566 2320 2321 2322 2323 2324 2325 2344 2345 2346 2347 2348 2349 2380 2381 2382 2383 2384 2385 2476 2477 2478 2479 2480 2481 2524 2525 2526 2530 2531 2532 2908 2909 2910 2914 2915 2916
28 29 30 1564 1565 1566 2320 2321 2322 2323 2324 2325 2344 2345 2346 2347 2348 2349 2380 2381 2382 2383 2384 2385 2476 2477 2478 2479 2480 2481 2524 2525 2526 2530 2531 2532 2908 2909 2910 2914 2915 2916
31 32 33 1567 1568 1569 2320 2321 2322 2323 2324 2325 2344 2345 2346 2347 2348 2349 2380 2381 2382 2383 2384 2385 2476 2477 2478 2479 2480 2481 2521 2522 2523 2527 2528 2529 2905 2906 2907 2911 2912 2913
31 32 33 1567 1568 1569 2320 2321 2322 2323 2324 2325 2344 2345 2346 2347 2348 2349 2380 2381 2382 2383 2384 2385 2476 2477 2478 2479 2480 2481 2521 2522 2523 2527 2528 2529 2905 2906 2907 2911 2912 2913
31 32 33 1567 1568 1569 2320 2321 2322 2323 2324 2325 2344 2345 2346 2347 2348 2349 2380 2381 2382 2383 2384 2385 2476 2477 2478 2479 2480 2481 2521 2522 2523 2527 2528 2529 2905 2906 2907 2911 2912 2913
34 35 36 1570 1571 1572 2317 2318 2319 2326 2327 2328 2341 2342 2343 2350 2351 2352 2377 2378 2379 2386 2387 2388 2473 2474 2475 2482 2483 2484 2524 2525 2526 2530 2531 2532 2908 2909 2910 2914 2915 2916
34 35 36 1570 1571 1572 2317 2318 2319 2326 2327 2328 2341 2342 2343 2350 2351 2352 2377 2378 2379 2386 2387 2388 2473 2474 2475 2482 2483 2484 2524 2525 2526 2530 2531 2532 2908 2909 2910 2914 2915 2916
34 35 36 1570 1571 1572 2317 2318 2319 2326 2327 2328 2341 2342 2343 2350 2351 2352 2377 2378 2379 2386 2387 2388 2473 2474 2475 2482 2483 2484 2524 2525 2526 2530 2531 2532 2908 2909 2910 2914 2915 2916
37 38 39 1573 1574 1575 2305 2306 2307 2314 2315 2316 2329 2330 2331 2338 2339 2340 2389 2390 2391 2398 2399 2400 2485 2486 2487 2494 2495 2496 2533 2534 2535 2539 2540 2541 2917 2918 2919 2923 2924 2925
37 38 39 1573 1574 1575 2305 2306 2307 2314 2315 2316 2329 2330 2331 2338 2339 2340 2389 2390 2391 2398 2399 2400 2485 2486 2487 2494 2495 2496 2533 2534 2535 2539 2540 2541 2917 2918 2919 2923 2924 2925
37 38 39 1573 1574 1575 2305 2306 2307 2314 2315 2316 2329 2330 2331 2338 2339 2340 2389 2390 2391 2398 2399 2400 2485 2486 2487 2494 2495 2496 2533 2534 2535 2539 2540 2541 2917 2918 2919 2923 2924 2925
40 41 42 1576 1577 1578 2308 2309 2310 2311 2312 2313 2332 2333 2334 2335 2336 2337 2392 2393 2394 2395 2396 2397 2488 2489 2490 2491 2492 2493 2536 2537 2538 2542 2543 2544 2920 2921 2922 2926 2927 2928
40 41 42 1576 1577 1578 2308 2309 2310 2311 2312 2313 2332 2333 2334 2335 2336 2337 2392 2393 2394 2395 2396 2397 2488 2489 2490 2491 2492 2493 2536 2537 2538 2542 2543 2544 2920 2921 2922 2926 2927 2928
40 41 42 1576 1577 1578 2308 2309 2310 2311 2312 2313 2332 2333 2334 2335 2336 2337 2392 2393 2394 2395 2396 2397 2488 2489 2490 2491 2492 2493 2536 2537 2538 2542 2543 2544 2920 2921 2922 2926 2927 2928
43 44 45 1579 1580 1581 2308 2309 2310 2311 2312 2313 2332 2333 2334 2335 2336 2337 2392 2393 2394 2395 2396 2397 2488 2489 2490 2491 2492 2493 2533 2534 2535 2539 2540 2541 2917 2918 2919 2923 2924 2925
43 44 45 1579 1580 1581 2308 2309 2310 2311 2312 2313 2332 2333 2334 2335 2336 2337 2392 2393 2394 2395 2396 2397 2488 2489 2490 2491 2492 2493 2533 2534 2535 2539 2540 2541 2917 2918 2919 2923 2924 2925
43 44 45 1579 1580 1581 2308 2309 2310 2311 2312 2313 2332 2333 2334 2335 2336 2337 2392 2393 2394 2395 2396 2397 2488 2489 2490 2491 2492 2493 2533 2534 2535 2539 2540 2541 2917 2918 2919 2923 2924 2925
46 47 48 1582 1583 1584 2305 2306 2307 2314 2315 2316 2329 2330 2331 2338 2339 2340 2389 2390 2391 2398 2399 2400 2485 2486 2487 2494 2495 2496 2536 2537 2538 2542 2543 2544 2920 2921 2922 2926 2927 2928
46 47 48 1582 1583 1584 2305 2306 2307 2314 2315 2316 2329 2330 2331 2338 2339 2340 2389 2390 2391 2398 2399 2400 2485 2486 2487 2494 2495 2496 2536 2537 2538 2542 2543 2544 2920 2921 2922 2926 2927 2928
46 47 48 1582 1583 1584 2305 2306 2307 2314 2315 2316 2329 2330 2331 2338 2339 2340 2389 2390 2391 2398 2399 2400 2485 2486 2487 2494 2495 2496 2536 2537 2538 2542 2543 2544 2920 2921 2922 2926 2927 2928
49 50 51 1585 1586 1587 2305 2306 2307 2314 2315 2316 2365 2366 2367 2374 2375 2376 2389 2390 2391 2398 2399 2400 2401 2402 2403 2410 2411 2412 2545 2546 2547 2551 2552 2553 2929 2930 2931 2935 2936 2937
49 50 51 1585 1586 1587 2305 2306 2307 2314 2315 2316 2365 2366 2367 2374 2375 2376 2389 2390 2391 2398 2399 2400 2401 2402 2403 2410 2411 2412 2545 2546 2547 2551 2552 2553 2929 2930 2931 2935 2936 2937
49 50 51 1585 1586 1587 2305 2306 2307 2314 2315 2316 2365 2366 2367 2374 2375 2376 2389 2390 2391 2398 2399 2400 2401 2402 2403 2410 2411 2412 2545 2546 2547 2551 2552 2553 2929 2930 2931 2935 2936 2937
52 53 54 1588 1589 1590 2308 2309 2310 2311 2312 2313 2368 2369 2370 2371 2372 2373 2392 2393 2394 2395 2396 2397 2404 2405 2406 2407 2408 2409 2548 2549 2550 2554 2555 2556 2932 2933 2934 2938 2939 2940
52 53 54 1588 1589 1590 2308 2309 2310 2311 2312 2313 2368 2369 2370 2371 2372 2373 2392 2393 2394 2395 2396 2397 2404 2405 2406 2407 2408 2409 2548 2549 2550 2554 2555 2556 2932 2933 2934 2938 2939 2940
52 53 54 1588 1589 1590 2308 2309 2310 2311 2312 2313 2368 2369 2370 2371 2372 2373 2392 2393 2394 2395 2396 2397 2404 2405 2406 2407 2408 2409 2548 2549 2550 2554 2555 2556 2932 2933 2934 2938 2939 2940
55 56 57 1591 1592 1593 2308 2309 2310 2311 2312 2313 2368 2369 2370 2371 2372 2373 2392 2393 2394 2395 2396 2397 2404 2405 2406 2407 2408 2409 2545 2546 2547 2551 2552 2553 2929 2930 2931 2935 2936 2937
55 56 57 1591 1592 1593 2308 2309 2310 2311 2312 2313 2368 2369 2370 2371 2372 2373 2392 2393 2394 2395 2396 2397 2404 2405 2406 2407 2408 2409 2545 2546 2547 2551 2552 2553 2929 2930 2931 2935 2936 2937
55 56 57 1591 1592 1593 2308 2309 2310 2311 2312 2313 2368 2369 2370 2371 2372 2373 2392 2393 2394 2395 2396 2397 2404 2405 2406 2407 2408 2409 2545 2546 2547 2551 2552 2553 2929 2930 2931 2935 2936 2937
58 59 60 1594 1595 1596 2305 2306 2307 2314 2315 2316 2365 2366 2367 2374 2375 2376 2389 2390 2391 2398 2399 2400 2401 2402 2403 2410 2411 2412 2548 2549 2550 2554 2555 2556 2932 2933 2934 2938 2939 2940
58 59 60 1594 1595 1596 2305 2306 2307 2314 2315 2316 2365 2366 2367 2374 2375 2376 2389 2390 2391 2398 2399 2400 2401 2402 2403 2410 2411 2412 2548 2549 2550 2554 2555 2556 2932 2933 2934 2938 2939 2940
58 59 60 1594 1595 1596 2305 2306 2307 2314 2315 2316 2365 2366 2367 2374 2375 2376 2389 2390 2391 2398 2399 2400 2401 2402 2403 2410 2411 2412 2548 2549 2550 2554 2555 2556 2932 2933 2934 2938 2939 2940
61 62 63 1597 1598 1599 2317 2318 2319 2326 2327 2328 2353 2354 2355 2362 2363 2364 2377 2378 2379 2386 2387 2388 2413 2414 2415 2422 2423 2424 2557 2558 2559 2563 2564 2565 2941 2942 2943 2947 2948 2949
61 62 63 1597 1598 1599 2317 2318 2319 2326 2327 2328 2353 2354 2355 2362 2363 2364 2377 2378 2379 2386 2387 2388 2413 2414 2415 2422 2423 2424 2557 2558 2559 2563 2564 2565 2941 2942 2943 2947 2948 2949
61 62 63 1597 1598 1599 2317 2318 2319 2326 2327 2328 2353 2354 2355 2362 2363 2364 2377 2378 2379 2386 2387 2388 2413 2414 2415 2422 2423 2424 2557 2558 2559 2563 2564 2565 2941 2942 2943 2947 2948 2949
64 65 66 1600 1601 1602 2320 2321 2322 2323 2324 2325 2356 2357 2358 2359 2360 2361 2380 2381 2382 2383 2384 2385 2416 2417 2418 2419 2420 2421 2560 2561 2562 2566 2567 2568 2944 2945 2946 2950 2951 2952
64 65 66 1600 1601 1602 2320 2321 2322 2323 2324 2325 2356 2357 2358 2359 2360 2361 2380 2381 2382 2383 2384 2385 2416 2417 2418 2419 2420 2421 2560 2561 2562 2566 2567 2568 2944 2945 2946 2950 2951 2952
64 65 66 1600 1601 1602 2320 2321 2322 2323 2324 2325 2356 2357 2358 2359 2360 2361 2380 2381 2382 2383 2384 2385 2416 2417 2418 2419 2420 2421 2560 2561 2562 2566 2567 2568 2944 2945 2946 2950 2951 2952
67 68 69 1603 1604 1605 2320 2321 2322 2323 2324 2325 2356 2357 2358 2359 2360 2361 2380 2381 2382 2383 2384 2385 2416 2417 2418 2419 2420 2421 2557 2558 2559 2563 2564 2565 2941 2942 2943 2947 2948 2949
67 68 69 1603 1604 1605 2320 2321 2322 2323 2324 2325 2356 2357 2358 2359 2360 2361 2380 2381 2382 2383 2384 2385 2416 2417 2418 2419 2420 2421 2557 2558 2559 2563 2564 2565 2941 2942 2943 2947 2948 2949
67 68 69 1603 1604 1605 2320 2321 2322 2323 2324 2325 2356 2357 2358 2359 2360 2361 2380 2381 2382 2383 2384 2385 2416 2417 2418 2419 2420 2421 2557 2558 2559 2563 2564 2565 2941 2942 2943 2947 2948 2949
70 71 72 1606 1607 1608 2317 2318 2319 2326 2327 2328 2353 2354 2355 2362 2363 2364 2377 2378 2379 2386 2387 2388 2413 2414 2415 2422 2423 2424 2560 2561 2562 2566 2567 2568 2944 2945 2946 2950 2951 2952
70 71 72 1606 1607 1608 2317 2318 2319 2326 2327 2328 2353 2354 2355 2362 2363 2364 2377 2378 2379 2386 2387 2388 2413 2414 2415 2422 2423 2424 2560 2561 2562 2566 2567 2568 2944 2945 2946 2950 2951 2952
70 71 72 1606 1607 1608 2317 2318 2319 2326 2327 2328 2353 2354 2355 2362 2363 2364 2377 2378 2379 2386 2387 2388 2413 2414 2415 2422 2423 2424 2560 2561 2562 2566 2567 2568 2944 2945 2946 2950 2951 2952
73 74 75 1609 1610 1611 2329 2330 2331 2338 2339 2340 2365 2366 2367 2374 2375 2376 2389 2390 2391 2398 2399 2400 2425 2426 2427 2434 2435 2436 2569 2570 2571 2575 2576 2577 2953 2954 2955 2959 2960 2961
73 74 75 1609 1610 1611 2329 2330 2331 2338 2339 2340 2365 2366 2367 2374 2375 2376 2389 2390 2391 2398 2399 2400 2425 2426 2427 2434 2435 2436 2569 2570 2571 2575 2576 2577 2953 2954 2955 2959 2960 2961
73 74 75 1609 1610 1611 2329 2330 2331 2338 2339 2340 2365 2366 2367 2374 2375 2376 2389 2390 2391 2398 2399 2400 2425 2426 2427 2434 2435 2436 2569 2570 2571 2575 2576 2577 2953 2954 2955 2959 2960 2961
76 77 78 1612 1613 1614 2332 2333 2334 2335 2336 2337 2368 2369 2370 2371 2372 2373 2392 2393 2394 2395 2396 2397 2428 2429 2430 2431 2432 2433 2572 2573 2574 2578 2579 2580 2956 2957 2958 2962 2963 2964
76 77 78 1612 1613 1614 2332 2333 2334 2335 2336 2337 2368 2369 2370 2371 2372 2373 2392 2393 2394 2395 2396 2397 2428 2429 2430 2431 2432 2433 2572 2573 2574 2578 2579 2580 2956 2957 2958 2962 2963 2964
76 77 78 1612 1613 1614 2332 2333 2334 2335 2336 2337 2368 2369 2370 2371 2372 2373 2392 2393 2394 2395 2396 2397 2428 2429 2430 2431 2432 2433 2572 2573 2574 2578 2579 2580 2956 2957 2958 2962 2963 2964
79 80 81 1615 1616 1617 2332 2333 2334 2335 2336 2337 2368 2369 2370 2371 2372 2373 2392 2393 2394 2395 2396 2397 2428 2429 2430 2431 2432 2433 2569 2570 2571 2575 2576 2577 2953 2954 2955 2959 2960 2961
79 80 81 1615 1616 1617 2332 2333 2334 2335 2336 2337 2368 2369 2370 2371 2372 2373 2392 2393 2394 2395 2396 2397 2428 2429 2430 2431 2432 2433 2569 2570 2571 2575 2576 2577 2953 2954 2955 2959 2960 2961
79 80 81 1615 1616 1617 2332 2333 2334 2335 2336 2337 2368 2369 2370 2371 2372 2373 2392 2393 2394 2395 2396 2397 2428 2429 2430 2431 2432 2433 2569 2570 2571 2575 2576 2577 2953 2954 2955 2959 2960 2961
82 83 84 1618 1619 1620 2329 2330 2331 2338 2339 2340 2365 2366 2367 2374 2375 2376 2389 2390 2391 2398 2399 2400 2425 2426 2427 2434 2435 2436 2572 2573 2574 2578 2579 2580 2956 2957 2958 2962 2963 2964
82 83 84 1618 1619 1620 2329 2330 2331 2338 2339 2340 2365 2366 2367 2374 2375 2376 2389 2390 2391 2398 2399 2400 2425 2426 2427 2434 2435 2436 2572 2573 2574 2578 2579 2580 2956 2957 2958 2962 2963 2964
82 83 84 1618 1619 1620 2329 2330 2331 2338 2339 2340 2365 2366 2367 2374 2375 2376 2389 2390 2391 2398 2399 2400 2425 2426 2427 2434 2435 2436 2572 2573 2574 2578 2579 2580 2956 2957 2958 2962 2963 2964
85 86 87 1621 1622 1623 2341 2342 2343 2350 2351 2352 2353 2354 2355 2362 2363 2364 2377 2378 2379 2386 2387 2388 2437 2438 2439 2446 2447 2448 2581 2582 2583 2587 2588 2589 2965 2966 2967 2971 2972 2973
85 86 87 1621 1622 1623 2341 2342 2343 2350 2351 2352 2353 2354 2355 2362 2363 2364 2377 2378 2379 2386 2387 2388 2437 2438 2439 2446 2447 2448 2581 2582 2583 2587 2588 2589 2965 2966 2967 2971 2972 2973
85 86 87 1621 1622 1623 2341 2342 2343 2350 2351 2352 2353 2354 2355 2362 2363 2364 2377 2378 2379 2386 2387 2388 2437 2438 2439 2446 2447 2448 2581 2582 2583 2587 2588 2589 2965 2966 2967 2971 2972 2973
88 89 90 1624 1625 1626 2344 2345 2346 2347 2348 2349 2356 2357 2358 2359 2360 2361 2380 2381 2382 2383 2384 2385 2440 2441 2442 2443 2444 2445 2584 2585 2586 2590 2591 2592 2968 2969 2970 2974 2975 2976
88 89 90 1624 1625 1626 2344 2345 2346 2347 2348 2349 2356 2357 2358 2359 2360 2361 2380 2381 2382 2383 2384 2385 2440 2441 2442 2443 2444 2445 2584 2585 2586 2590 2591 2592 2968 2969 2970 2974 2975 2976
88 89 90 1624 1625 1626 2344 2345 2346 2347 2348 2349 2356 2357 2358 2359 2360 2361 2380 2381 2382 2383 2384 2385 2440 2441 2442 2443 2444 2445 2584 2585 2586 2590 2591 2592 2968 2969 2970 2974 2975 2976
91 92 93 1627 1628 1629 2344 2345 2346 2347 2348 2349 2356 2357 2358 2359 2360 2361 2380 2381 2382 2383 2384 2385 2440 2441 2442 2443 2444 2445 2581 2582 2583 2587 2588 2589 2965 2966 2967 2971 2972 2973
91 92 93 1627 1628 1629 2344 2345 2346 2347 2348 2349 2356 2357 2358 2359 2360 2361 2380 2381 2382 2383 2384 2385 2440 2441 2442 2443 2444 2445 2581 2582 2583 2587 2588 2589 2965 2966 2967 2971 2972 2973
91 92 93 1627 1628 1629 2344 2345 2346 2347 2348 2349 2356 2357 2358 2359 2360 2361 2380 2381 2382 2383 2384 2385 2440 2441 2442 2443 2444 2445 2581 2582 2583 2587 2588 2589 2965 2966 2967 2971 2972 2973
94 95 96 1630 1631 1632 2341 2342 2343 2350 2351 2352 2353 2354 2355 2362 2363 2364 2377 2378 2379 2386 2387 2388 2437 2438 2439 2446 2447 2448 2584 2585 2586 2590 2591 2592 2968 2969 2970 2974 2975 2976
94 95 96 1630 1631 1632 2341 2342 2343 2350 2351 2352 2353 2354 2355 2362 2363 2364 2377 2378 2379 2386 2387 2388 2437 2438 2439 2446 2447 2448 2584 2585 2586 2590 2591 2592 2968 2969 2970 2974 2975 2976
94 95 96 1630 1631 1632 2341 2342 2343 2350 2351 2352 2353 2354 2355 2362 2363 2364 2377 2378 2379 2386 2387 2388 2437 2438 2439 2446 2447 2448 2584 2585 2586 2590 2591 2592 2968 2969 2970 2974 2975 2976
97 98 99 1633 1634 1635 2353 2354 2355 2362 2363 2364 2413 2414 2415 2422 2423 2424 2437 2438 2439 2446 2447 2448 2449 2450 2451 2458 2459 2460 2593 2594 2595 2599 2600 2601 2977 2978 2979 2983 2984 2985
97 98 99 1633 1634 1635 2353 2354 2355 2362 2363 2364 2413 2414 2415 2422 2423 2424 2437 2438 2439 2446 2447 2448 2449 2450 2451 2458 2459 2460 2593 2594 2595 2599 2600 2601 2977 2978 2979 2983 2984 2985
97 98 99 1633 1634 1635 2353 2354 2355 2362 2363 2364 2413 2414 2415 2422 2423 2424 2437 2438 2439 2446 2447 2448 2449 2450 2451 2458 2459 2460 2593 2594 2595 2599 2600 2601 2977 2978 2979 2983 2984 2985
100 101 102 1636 1637 1638 2356 2357 2358 2359 2360 2361 2416 2417 2418 2419 2420 2421 2440 2441 2442 2443 2444 2445 2452 2453 2454 2455 2456 2457 2596 2597 2598 2602 2603 2604 2980 2981 2982 2986 2987 2988
100 101 102 1636 1637 1638 2356 2357 2358 2359 2360 2361 2416 2417 2418 2419 2420 2421 2440 2441 2442 2443 2444 2445 2452 2453 2454 2455 2456 2457 2596 2597 2598 2602 2603 2604 2980 2981 2982 2986 2987 2988
100 101 102 1636 1637 1638 2356 2357 2358 2359 2360 2361 2416 2417 2418 2419 2420 2421 2440 2441 2442 2443 2444 2445 2452 2453 2454 2455 2456 2457 2596 2597 2598 2602 2603 2604 2980 2981 2982 2986 2987 2988
103 104 105 1639 1640 1641 2356 2357 2358 2359 2360 2361 2416 2417 2418 2419 2420 2421 2440 2441 2442 2443 2444 2445 2452 2453 2454 2455 2456 2457 2593 2594 2595 2599 2600 2601 2977 2978 2979 2983 2984 2985
103 104 105 1639 1640 1641 2356 2357 2358 2359 2360 2361 2416 2417 2418 2419 2420 2421 2440 2441 2442 2443 2444 2445 2452 2453 2454 2455 2456 2457 2593 2594 2595 2599 2600 2601 2977 2978 2979 2983 2984 2985
103 104 105 1639 1640 1641 2356 2357 2358 2359 2360 2361 2416 2417 2418 2419 2420 2421 2440 2441 2442 2443 2444 2445 2452 2453 2454 2455 2456 2457 2593 2594 2595 2599 2600 2601 2977 2978 2979 2983 2984 2985
106 107 108 1642 1643 1644 2353 2354 2355 2362 2363 2364 2413 2414 2415 2422 2423 2424 2437 2438 2439 2446 2447 2448 2449 2450 2451 2458 2459 2460 2596 2597 2598 2602 2603 2604 2980 2981 2982 2986 2987 2988
106 107 108 1642 1643 1644 2353 2354 2355 2362 2363 2364 2413 2414 2415 2422 2423 2424 2437 2438 2439 2446 2447 2448 2449 2450 2451 2458 2459 2460 2596 2597 2598 2602 2603 2604 2980 2981 2982 2986 2987 2988
106 107 108 1642 1643 1644 2353 2354 2355 2362 2363 2364 2413 2414 2415 2422 2423 2424 2437 2438 2439 2446 2447 2448 2449 2450 2451 2458 2459 2460 2596 2597 2598 2602 2603 2604 2980 2981 2982 2986 2987 2988
109 110 111 1645 1646 1647 2365 2366 2367 2374 2375 2376 2401 2402 2403 2410 2411 2412 2425 2426 2427 2434 2435 2436 2461 2462 2463 2470 2471 2472 2605 2606 2607 2611 2612 2613 2989 2990 2991 2995 2996 2997
109 110 111 1645 1646 1647 2365 2366 2367 2374 2375 2376 2401 2402 2403 2410 2411 2412 2425 2426 2427 2434 2435 2436 2461 2462 2463 2470 2471 2472 2605 2606 2607 2611 2612 2613 2989 2990 2991 2995 2996 2997
109 110 111 1645 1646 1647 2365 2366 2367 2374 2375 2376 2401 2402 2403 2410 2411 2412 2425 2426 2427 2434 2435 2436 2461 2462 2463 2470 2471 2472 2605 2606 2607 2611 2612 2613 2989 2990 2991 2995 2996 2997
112 113 114 1648 1649 1650 2368 2369 2370 2371 2372 2373 2404 2405 2406 2407 2408 2409 2428 2429 2430 2431 2432 2433 2464 2465 2466 2467 2468 2469 2608 2609 2610 2614 2615 2616 2992 2993 2994 2998 2999 3000
112 113 114 1648 1649 1650 2368 2369 2370 2371 2372 2373 2404 2405 2406 2407 2408 2409 2428 2429 2430 2431 2432 2433 2464 2465 2466 2467 2468 2469 2608 2609 2610 2614 2615 2616 2992 2993 2994 2998 2999 3000
112 113 114 1648 1649 1650 2368 2369 2370 2371 2372 2373 2404 2405 2406 2407 2408 2409 2428 2429 2430 2431 2432 2433 2464 2465 2466 2467 2468 2469 2608 2609 2610 2614 2615 2616 2992 2993 2994 2998 2999 3000
115 116 117 1651 1652 1653 2368 2369 2370 2371 2372 2373 2404 2405 2406 2407 2408 2409 2428 2429 2430 2431 2432 2433 2464 2465 2466 2467 2468 2469 2605 2606 2607 2611 2612 2613 2989 2990 2991 2995 2996 2997
115 116 117 1651 1652 1653 2368 2369 2370 2371 2372 2373 2404 2405 2406 2407 2408 2409 2428 2429 2430 2431 2432 2433 2464 2465 2466 2467 2468 2469 2605 2606 2607 2611 2612 2613 2989 2990 2991 2995 2996 2997
115 116 117 1651 1652 1653 2368 2369 2370 2371 2372 2373 2404 2405 2406 2407 2408 2409 2428 2429 2430 2431 2432 2433 2464 2465 2466 2467 2468 2469 2605 2606 2607 2611 2612 2613 2989 2990 2991 2995 2996 2997
118 119 120 1654 1655 1656 2365 2366 2367 2374 2375 2376 2401 2402 2403 2410 2411 2412 2425 2426 2427 2434 2435 2436 2461 2462 2463 2470 2471 2472 2608 2609 2610 2614 2615 2616 2992 2993 2994 2998 2999 3000
118 119 120 1654 1655 1656 2365 2366 2367 2374 2375 2376 2401 2402 2403 2410 2411 2412 2425 2426 2427 2434 2435 2436 2461 2462 2463 2470 2471 2472 2608 2609 2610 2614 2615 2616 2992 2993 2994 2998 2999 3000
118 119 120 1654 1655 1656 2365 2366 2367 2374 2375 2376 2401 2402 2403 2410 2411 2412 2425 2426 2427 2434 2435 2436 2461 2462 2463 2470 2471 2472 2608 2609 2610 2614 2615 2616 2992 2993 2994 2998 2999 3000
121 122 123 1657 1658 1659 2377 2378 2379 2386 2387 2388 2413 2414 2415 2422 2423 2424 2437 2438 2439 2446 2447 2448 2473 2474 2475 2482 2483 2484 2617 2618 2619 2623 2624 2625 3001 3002 3003 3007 3008 3009
121 122 123 1657 1658 1659 2377 2378 2379 2386 2387 2388 2413 2414 2415 2422 2423 2424 2437 2438 2439 2446 2447 2448 2473 2474 2475 2482 2483 2484 2617 2618 2619 2623 2624 2625 3001 3002 3003 3007 3008 3009
121 122 123 1657 1658 1659 2377 2378 2379 2386 2387 2388 2413 2414 2415 2422 2423 2424 2437 2438 2439 2446 2447 2448 2473 2474 2475 2482 2483 2484 2617 2618 2619 2623 2624 2625 3001 3002 3003 3007 3008 3009
124 125 126 1660 1661 1662 2380 2381 2382 2383 2384 2385 2416 2417 2418 2419 2420 2421 2440 2441 2442 2443 2444 2445 2476 2477 2478 2479 2480 2481 2620 2621 2622 2626 2627 2628 3004 3005 3006 3010 3011 3012
124 125 126 1660 1661 1662 2380 2381 2382 2383 2384 2385 2416 2417 2418 2419 2420 2421 2440 2441 2442 2443 2444 2445 2476 2477 2478 2479 2480 2481 2620 2621 2622 2626 2627 2628 3004 3005 3006 3010 3011 3012
124 125 126 1660 1661 1662 2380 2381 2382 2383 2384 2385 2416 2417 2418 2419 2420 2421 2440 2441 2442 2443 2444 2445 2476 2477 2478 2479 2480 2481 2620 2621 2622 2626 2627 2628 3004 3005 3006 3010 3011 3012
127 128 129 1663 1664 1665 2380 2381 2382 2383 2384 2385 2416 2417 2418 2419 2420 2421 2440 2441 2442 2443 2444 2445 2476 2477 2478 2479 2480 2481 2617 2618 2619 2623 2624 2625 3001 3002 3003 3007 3008 3009
127 128 129 1663 1664 1665 2380 2381 2382 2383 2384 2385 2416 2417 2418 2419 2420 2421 2440 2441 2442 2443 2444 2445 2476 2477 2478 2479 2480 2481 2617 2618 2619 2623 2624 2625 3001 3002 3003 3007 3008 3009
127 128 129 1663 1664 1665 2380 2381 2382 2383 2384 2385 2416 2417 2418 2419 2420 2421 2440 2441 2442 2443 2444 2445 2476 2477 2478 2479 2480 2481 2617 2618 2619 2623 2624 2625 3001 3002 3003 3007 3008 3009
130 131 132 1666 1667 1668 2377 2378 2379 2386 2387 2388 2413 2414 2415 2422 2423 2424 2437 2438 2439 2446 2447 2448 2473 2474 2475 2482 2483 2484 2620 2621 2622 2626 2627 2628 3004 3005 3006 3010 3011 3012
130 131 132 1666 1667 1668 2377 2378 2379 2386 2387 2388 2413 2414 2415 2422 2423 2424 2437 2438 2439 2446 2447 2448 2473 2474 2475 2482 2483 2484 2620 2621 2622 2626 2627 2628 3004 3005 3006 3010 3011 3012
130 131 132 1666 1667 1668 2377 2378 2379 2386 2387 2388 2413 2414 2415 2422 2423 2424 2437 2438 2439 2446 2447 2448 2473 2474 2475 2482 2483 2484 2620 2621 2622 2626 2627 2628 3004 3005 3006 3010 3011 3012
133 134 135 1669 1670 1671 2389 2390 2391 2398 2399 2400 2401 2402 2403 2410 2411 2412 2425 2426 2427 2434 2435 2436 2485 2486 2487 2494 2495 2496 2629 2630 2631 2635 2636 2637 3013 3014 3015 3019 3020 3021
133 134 135 1669 1670 1671 2389 2390 2391 2398 2399 2400 2401 2402 2403 2410 2411 2412 2425 2426 2427 2434 2435 2436 2485 2486 2487 2494 2495 2496 2629 2630 2631 2635 2636 2637 3013 3014 3015 3019 3020 3021
133 134 135 1669 1670 1671 2389 2390 2391 2398 2399 2400 2401 2402 2403 2410 2411 2412 2425 2426 2427 2434 2435 2436 2485 2486 2487 2494 2495 2496 2629 2630 2631 2635 2636 2637 3013 3014 3015 3019 3020 3021
136 137 138 1672 1673 1674 2392 2393 2394 2395 2396 2397 2404 2405 2406 2407 2408 2409 2428 2429 2430 2431 2432 2433 2488 2489 2490 2491 2492 2493 2632 2633 2634 2638 2639 2640 3016 3017 3018 3022 3023 3024
136 137 138 1672 1673 1674 2392 2393 2394 2395 2396 2397 2404 2405 2406 2407 2408 2409 2428 2429 2430 2431 2432 2433 2488 2489 2490 2491 2492 2493 2632 2633 2634 2638 2639 2640 3016 3017 3018 3022 3023 3024
136 137 138 1672 1673 1674 2392 2393 2394 2395 2396 2397 2404 2405 2406 2407 2408 2409 2428 2429 2430 2431 2432 2433 2488 2489 2490 2491 2492 2493 2632 2633 2634 2638 2639 2640 3016 3017 3018 3022 3023 3024
139 140 141 1675 1676 1677 2392 2393 2394 2395 2396 2397 2404 2405 2406 2407 2408 2409 2428 2429 2430 2431 2432 2433 2488 2489 2490 2491 2492 2493 2629 2630 2631 2635 2636 2637 3013 3014 3015 3019 3020 3021
139 140 141 1675 1676 1677 2392 2393 2394 2395 2396 2397 2404 2405 2406 2407 2408 2409 2428 2429 2430 2431 2432 2433 2488 2489 2490 2491 2492 2493 2629 2630 2631 2635 2636 2637 3013 3014 3015 3019 3020 3021
139 140 141 1675 1676 1677 2392 2393 2394 2395 2396 2397 2404 2405 2406 2407 2408 2409 2428 2429 2430 2431 2432 2433 2488 2489 2490 2491 2492 2493 2629 2630 2631 2635 2636 2637 3013 3014 3015 3019 3020 3021
142 143 144 1678 1679 1680 2389 2390 2391 2398 2399 2400 2401 2402 2403 2410 2411 2412 2425 2426 2427 2434 2435 2436 2485 2486 2487 2494 2495 2496 2632 2633 2634 2638 2639 2640 3016 3017 3018 3022 3023 3024
142 143 144 1678 1679 1680 2389 2390 2391 2398 2399 2400 2401 2402 2403 2410 2411 2412 2425 2426 2427 2434 2435 2436 2485 2486 2487 2494 2495 2496 2632 2633 2634 2638 2639 2640 3016 3017 3018 3022 3023 3024
142 143 144 1678 1679 1680 2389 2390 2391 2398 2399 2400 2401 2402 2403 2410 2411 2412 2425 2426 2427 2434 2435 2436 2485 2486 2487 2494 2495 2496 2632 2633 2634 2638 2639 2640 3016 3017 3018 3022 3023 3024
145 146 147 1681 1682 1683 2305 2306 2307 2314 2315 2316 2401 2402 2403 2410 2411 2412 2461 2462 2463 2470 2471 2472 2485 2486 2487 2494 2495 2496 2641 2642 2643 2647 2648 2649 3025 3026 3027 3031 3032 3033
145 146 147 1681 1682 1683 2305 2306 2307 2314 2315 2316 2401 2402 2403 2410 2411 2412 2461 2462 2463 2470 2471 2472 2485 2486 2487 2494 2495 2496 2641 2642 2643 2647 2648 2649 3025 3026 3027 3031 3032 3033
145 146 147 1681 1682 1683 2305 2306 2307 2314 2315 2316 2401 2402 2403 2410 2411 2412 2461 2462 2463 2470 2471 2472 2485 2486 2487 2494 2495 2496 2641 2642 2643 2647 2648 2649 3025 3026 3027 3031 3032 3033
148 149 150 1684 1685 1686 2308 2309 2310 2311 2312 2313 2404 2405 2406 2407 2408 2409 2464 2465 2466 2467 2468 2469 2488 2489 2490 2491 2492 2493 2644 2645 2646 2650 2651 2652 3028 3029 3030 3034 3035 3036
148 149 150 1684 1685 1686 2308 2309 2310 2311 2312 2313 2404 2405 2406 2407 2408 2409 2464 2465 2466 2467 2468 2469 2488 2489 2490 2491 2492 2493 2644 2645 2646 2650 2651 2652 3028 3029 3030 3034 3035 3036
148 149 150 1684 1685 1686 2308 2309 2310 2311 2312 2313 2404 2405 2406 2407 2408 2409 2464 2465 2466 2467 2468 2469 2488 2489 2490 2491 2492 2493 2644 2645 2646 2650 2651 2652 3028 3029 3030 3034 3035 3036
151 152 153 1687 1688 1689 2308 2309 2310 2311 2312 2313 2404 2405 2406 2407 2408 2409 2464 2465 2466 2467 2468 2469 2488 2489 2490 2491 2492 2493 2641 2642 2643 2647 2648 2649 3025 3026 3027 3031 3032 3033
151 152 153 1687 1688 1689 2308 2309 2310 2311 2312 2313 2404 2405 2406 2407 2408 2409 2464 2465 2466 2467 2468 2469 2488 2489 2490 2491 2492 2493 2641 2642 2643 2647 2648 2649 3025 3026 3027 3031 3032 3033
151 152 153 1687 1688 1689 2308 2309 2310 2311 2312 2313 2404 2405 2406 2407 2408 2409 2464 2465 2466 2467 2468 2469 2488 2489 2490 2491 2492 2493 2641 2642 2643 2647 2648 2649 3025 3026 3027 3031 3032 3033
154 155 156 1690 1691 1692 2305 2306 2307 2314 2315 2316 2401 2402 2403 2410 2411 2412 2461 2462 2463 2470 2471 2472 2485 2486 2487 2494 2495 2496 2644 2645 2646 2650 2651 2652 3028 3029 3030 3034 3035 3036
154 155 156 1690 1691 1692 2305 2306 2307 2314 2315 2316 2401 2402 2403 2410 2411 2412 2461 2462 2463 2470 2471 2472 2485 2486 2487 2494 2495 2496 2644 2645 2646 2650 2651 2652 3028 3029 3030 3034 3035 3036
154 155 156 1690 1691 1692 2305 2306 2307 2314 2315 2316 2401 2402 2403 2410 2411 2412 2461 2462 2463 2470 2471 2472 2485 2486 2487 2494 2495 2496 2644 2645 2646 2650 2651 2652 3028 3029 3030 3034 3035 3036
157 158 159 1693 1694 1695 2317 2318 2319 2326 2327 2328 2413 2414 2415 2422 2423 2424 2449 2450 2451 2458 2459 2460 2473 2474 2475 2482 2483 2484 2653 2654 2655 2659 2660 2661 3037 3038 3039 3043 3044 3045
157 158 159 1693 1694 1695 2317 2318 2319 2326 2327 2328 2413 2414 2415 2422 2423 2424 2449 2450 2451 2458 2459 2460 2473 2474 2475 2482 2483 2484 2653 2654 2655 2659 2660 2661 3037 3038 3039 3043 3044 3045
157 158 159 1693 1694 1695 2317 2318 2319 2326 2327 2328 2413 2414 2415 2422 2423 2424 2449 2450 2451 2458 2459 2460 2473 2474 2475 2482 2483 2484 2653 2654 2655 2659 2660 2661 3037 3038 3039 3043 3044 3045
160 161 162 1696 1697 1698 2320 2321 2322 2323 2324 2325 2416 2417 2418 2419 2420 2421 2452 2453 2454 2455 2456 2457 2476 2477 2478 2479 2480 2481 2656 2657 2658 2662 2663 2664 3040 3041 3042 3046 3047 3048
160 161 162 1696 1697 1698 2320 2321 2322 2323 2324 2325 2416 2417 2418 2419 2420 2421 2452 2453 2454 2455 2456 2457 2476 2477 2478 2479 2480 2481 2656 2657 2658 2662 2663 2664 3040 3041 3042 3046 3047 3048
160 161 162 1696 1697 1698 2320 2321 2322 2323 2324 2325 2416 2417 2418 2419 2420 2421 2452 2453 2454 2455 2456 2457 2476 2477 2478 2479 2480 2481 2656 2657 2658 2662 2663 2664 3040 3041 3042 3046 3047 3048
163 164 165 1699 1700 1701 2320 2321 2322 2323 2324 2325 2416 2417 2418 2419 2420 2421 2452 2453 2454 2455 2456 2457 2476 2477 2478 2479 2480 2481 2653 2654 2655 2659 2660 2661 3037 3038 3039 3043 3044 3045
163 164 165 1699 1700 1701 2320 2321 2322 2323 2324 2325 2416 2417 2418 2419 2420 2421 2452 2453 2454 2455 2456 2457 2476 2477 2478 2479 2480 2481 2653 2654 2655 2659 2660 2661 3037 3038 3039 3043 3044 3045
163 164 165 1699 1700 1701 2320 2321 2322 2323 2324 2325 2416 2417 2418 2419 2420 2421 2452 2453 2454 2455 2456 2457 2476 2477 2478 2479 2480 2481 2653 2654 2655 2659 2660 2661 3037 3038 3039 3043 3044 3045
166 167 168 1702 1703 1704 2317 2318 2319 2326 2327 2328 2413 2414 2415 2422 2423 2424 2449 2450 2451 2458 2459 2460 2473 2474 2475 2482 2483 2484 2656 2657 2658 2662 2663 2664 3040 3041 3042 3046 3047 3048
166 167 168 1702 1703 1704 2317 2318 2319 2326 2327 2328 2413 2414 2415 2422 2423 2424 2449 2450 2451 2458 2459 2460 2473 2474 2475 2482 2483 2484 2656 2657 2658 2662 2663 2664 3040 3041 3042 3046 3047 3048
166 167 168 1702 1703 1704 2317 2318 2319 2326 2327 2328 2413 2414 2415 2422 2423 2424 2449 2450 2451 2458 2459 2460 2473 2474 2475 2482 2483 2484 2656 2657 2658 2662 2663 2664 3040 3041 3042 3046 3047 3048
169 170 171 1705 1706 1707 2329 2330 2331 2338 2339 2340 2425 2426 2427 2434 2435 2436 2461 2462 2463 2470 2471 2472 2485 2486 2487 2494 2495 2496 2665 2666 2667 2671 2672 2673 3049 3050 3051 3055 3056 3057
169 170 171 1705 1706 1707 2329 2330 2331 2338 2339 2340 2425 2426 2427 2434 2435 2436 2461 2462 2463 2470 2471 2472 2485 2486 2487 2494 2495 2496 2665 2666 2667 2671 2672 2673 3049 3050 3051 3055 3056 3057
169 170 171 1705 1706 1707 2329 2330 2331 2338 2339 2340 2425 2426 2427 2434 2435 2436 2461 2462 2463 2470 2471 2472 2485 2486 2487 2494 2495 2496 2665 2666 2667 2671 2672 2673 3049 3050 3051 3055 3056 3057
172 173 174 1708 1709 1710 2332 2333 2334 2335 2336 2337 2428 2429 2430 2431 2432 2433 2464 2465 2466 2467 2468 2469 2488 2489 2490 2491 2492 2493 2668 2669 2670 2674 2675 2676 3052 3053 3054 3058 3059 3060
172 173 174 1708 1709 1710 2332 2333 2334 2335 2336 2337 2428 2429 2430 2431 2432 2433 2464 2465 2466 2467 2468 2469 2488 2489 2490 2491 2492 2493 2668 2669 2670 2674 2675 2676 3052 3053 3054 3058 3059 3060
172 173 174 1708 1709 1710 2332 2333 2334 2335 2336 2337 2428 2429 2430 2431 2432 2433 2464 2465 2466 2467 2468 2469 2488 2489 2490 2491 2492 2493 2668 2669 2670 2674 2675 2676 3052 3053 3054 3058 3059 3060
175 176 177 1711 1712 1713 2332 2333 2334 2335 2336 2337 2428 2429 2430 2431 2432 2433 2464 2465 2466 2467 2468 2469 2488 2489 2490 2491 2492 2493 2665 2666 2667 2671 2672 2673 3049 3050 3051 3055 3056 3057
175 176 177 1711 1712 1713 2332 2333 2334 2335 2336 2337 2428 2429 2430 2431 2432 2433 2464 2465 2466 2467 2468 2469 2488 2489 2490 2491 2492 2493 2665 2666 2667 2671 2672 2673 3049 3050 3051 3055 3056 3057
175 176 177 1711 1712 1713 2332 2333 2334 2335 2336 2337 2428 2429 2430 2431 2432 2433 2464 2465 2466 2467 2468 2469 2488 2489 2490 2491 2492 2493 2665 2666 2667 2671 2672 2673 3049 3050 3051 3055 3056 3057
178 179 180 1714 1715 1716 2329 2330 2331 2338 2339 2340 2425 2426 2427 2434 2435 2436 2461 2462 2463 2470 2471 2472 2485 2486 2487 2494 2495 2496 2668 2669 2670 2674 2675 2676 3052 3053 3054 3058 3059 3060
178 179 180 1714 1715 1716 2329 2330 2331 2338 2339 2340 2425 2426 2427 2434 2435 2436 2461 2462 2463 2470 2471 2472 2485 2486 2487 2494 2495 2496 2668 2669 2670 2674 2675 2676 3052 3053 3054 3058 3059 3060
178 179 180 1714 1715 1716 2329 2330 2331 2338 2339 2340 2425 2426 2427 2434 2435 2436 2461 2462 2463 2470 2471 2472 2485 2486 2487 2494 2495 2496 2668 2669 2670 2674 2675 2676 3052 3053 3054 3058 3059 3060
181 182 183 1717 1718 1719 2341 2342 2343 2350 2351 2352 2437 2438 2439 2446 2447 2448 2449 2450 2451 2458 2459 2460 2473 2474 2475 2482 2483 2484 2677 2678 2679 2683 2684 2685 3061 3062 3063 3067 3068 3069
181 182 183 1717 1718 1719 2341 2342 2343 2350 2351 2352 2437 2438 2439 2446 2447 2448 2449 2450 2451 2458 2459 2460 2473 2474 2475 2482 2483 2484 2677 2678 2679 2683 2684 2685 3061 3062 3063 3067 3068 3069
181 182 183 1717 1718 1719 2341 2342 2343 2350 2351 2352 2437 2438 2439 2446 2447 2448 2449 2450 2451 2458 2459 2460 2473 2474 2475 2482 2483 2484 2677 2678 2679 2683 2684 2685 3061 3062 3063 3067 3068 3069
184 185 186 1720 1721 1722 2344 2345 2346 2347 2348 2349 2440 2441 2442 2443 2444 2445 2452 2453 2454 2455 2456 2457 2476 2477 2478 2479 2480 2481 2680 2681 2682 2686 2687 2688 3064 3065 3066 3070 3071 3072
184 185 186 1720 1721 1722 2344 2345 2346 2347 2348 2349 2440 2441 2442 2443 2444 2445 2452 2453 2454 2455 2456 2457 2476 2477 2478 2479 2480 2481 2680 2681 2682 2686 2687 2688 3064 3065 3066 3070 3071 3072
184 185 186 1720 1721 1722 2344 2345 2346 2347 2348 2349 2440 2441 2442 2443 2444 2445 2452 2453 2454 2455 2456 2457 2476 2477 2478 2479 2480 2481 2680 2681 2682 2686 2687 2688 3064 3065 3066 3070 3071 3072
187 188 189 1723 1724 1725 2344 2345 2346 2347 2348 2349 2440 2441 2442 2443 2444 2445 2452 2453 2454 2455 2456 2457 2476 2477 2478 2479 2480 2481 2677 2678 2679 2683 2684 2685 3061 3062 3063 3067 3068 3069
187 188 189 1723 1724 1725 2344 2345 2346 2347 2348 2349 2440 2441 2442 2443 2444 2445 2452 2453 2454 2455 2456 2457 2476 2477 2478 2479 2480 2481 2677 2678 2679 2683 2684 2685 3061 3062 3063 3067 3068 3069
187 188 189 1723 1724 1725 2344 2345 2346 2347 2348 2349 2440 2441 2442 2443 2444 2445 2452 2453 2454 2455 2456 2457 2476 2477 2478 2479 2480 2481 2677 2678 2679 2683 2684 2685 3061 3062 3063 3067 3068 3069
190 191 192 1726 1727 1728 2341 2342 2343 2350 2351 2352 2437 2438 2439 2446 2447 2448 2449 2450 2451 2458 2459 2460 2473 2474 2475 2482 2483 2484 2680 2681 2682 2686 2687 2688 3064 3065 3066 3070 3071 3072
190 191 192 1726 1727 1728 2341 2342 2343 2350 2351 2352 2437 2438 2439 2446 2447 2448 2449 2450 2451 2458 2459 2460 2473 2474 2475 2482 2483 2484 2680 2681 2682 2686 2687 2688 3064 3065 3066 3070 3071 3072
190 191 192 1726 1727 1728 2341 2342 2343 2350 2351 2352 2437 2438 2439 2446 2447 2448 2449 2450 2451 2458 2459 2460 2473 2474 2475 2482 2483 2484 2680 2681 2682 2686 2687 2688 3064 3065 3066 3070 3071 3072
193 194 195 1729 1730 1731 2305 2306 2307 2311 2312 2313 2509 2510 2511 2518 2519 2520 2533 2534 2535 2542 2543 2544 2545 2546 2547 2554 2555 2556 2641 2642 2643 2650 2651 2652 2689 2690 2691 2695 2696 2697
193 194 195 1729 1730 1731 2305 2306 2307 2311 2312 2313 2509 2510 2511 2518 2519 2520 2533 2534 2535 2542 2543 2544 2545 2546 2547 2554 2555 2556 2641 2642 2643 2650 2651 2652 2689 2690 2691 2695 2696 2697
193 194 195 1729 1730 1731 2305 2306 2307 2311 2312 2313 2509 2510 2511 2518 2519 2520 2533 2534 2535 2542 2543 2544 2545 2546 2547 2554 2555 2556 2641 2642 2643 2650 2651 2652 2689 2690 2691 2695 2696 2697
196 197 198 1732 1733 1734 2308 2309 2310 2314 2315 2316 2512 2513 2514 2515 2516 2517 2536 2537 2538 2539 2540 2541 2548 2549 2550 2551 2552 2553 2644 2645 2646 2647 2648 2649 2692 2693 2694 2698 2699 2700
196 197 198 1732 1733 1734 2308 2309 2310 2314 2315 2316 2512 2513 2514 2515 2516 2517 2536 2537 2538 2539 2540 2541 2548 2549 2550 2551 2552 2553 2644 2645 2646 2647 2648 2649 2692 2693 2694 2698 2699 2700
196 197 198 1732 1733 1734 2308 2309 2310 2314 2315 2316 2512 2513 2514 2515 2516 2517 2536 2537 2538 2539 2540 2541 2548 2549 2550 2551 2552 2553 2644 2645 2646 2647 2648 2649 2692 2693 2694 2698 2699 2700
199 200 201 1735 1736 1737 2305 2306 2307 2311 2312 2313 2512 2513 2514 2515 2516 2517 2536 2537 2538 2539 2540 2541 2548 2549 2550 2551 2552 2553 2644 2645 2646 2647 2648 2649 2689 2690 2691 2695 2696 2697
199 200 201 1735 1736 1737 2305 2306 2307 2311 2312 2313 2512 2513 2514 2515 2516 2517 2536 2537 2538 2539 2540 2541 2548 2549 2550 2551 2552 2553 2644 2645 2646 2647 2648 2649 2689 2690 2691 2695 2696 2697
199 200 201 1735 1736 1737 2305 2306 2307 2311 2312 2313 2512 2513 2514 2515 2516 2517 2536 2537 2538 2539 2540 2541 2548 2549 2550 2551 2552 2553 2644 2645 2646 2647 2648 2649 2689 2690 2691 2695 2696 2697
202 203 204 1738 1739 1740 2308 2309 2310 2314 2315 2316 2509 2510 2511 2518 2519 2520 2533 2534 2535 2542 2543 2544 2545 2546 2547 2554 2555 2556 2641 2642 2643 2650 2651 2652 2692 2693 2694 2698 2699 2700
202 203 204 1738 1739 1740 2308 2309 2310 2314 2315 2316 2509 2510 2511 2518 2519 2520 2533 2534 2535 2542 2543 2544 2545 2546 2547 2554 2555 2556 2641 2642 2643 2650 2651 2652 2692 2693 2694 2698 2699 2700
202 203 204 1738 1739 1740 2308 2309 2310 2314 2315 2316 2509 2510 2511 2518 2519 2520 2533 2534 2535 2542 2543 2544 2545 2546 2547 2554 2555 2556 2641 2642 2643 2650 2651 2652 2692 2693 2694 2698 2699 2700
205 206 207 1741 1742 1743 2317 2318 2319 2323 2324 2325 2497 2498 2499 2506 2507 2508 2521 2522 2523 2530 2531 2532 2557 2558 2559 2566 2567 2568 2653 2654 2655 2662 2663 2664 2701 2702 2703 2707 2708 2709
205 206 207 1741 1742 1743 2317 2318 2319 2323 2324 2325 2497 2498 2499 2506 2507 2508 2521 2522 2523 2530 2531 2532 2557 2558 2559 2566 2567 2568 2653 2654 2655 2662 2663 2664 2701 2702 2703 2707 2708 2709
205 206 207 1741 1742 1743 2317 2318 2319 2323 2324 2325 2497 2498 2499 2506 2507 2508 2521 2522 2523 2530 2531 2532 2557 2558 2559 2566 2567 2568 2653 2654 2655 2662 2663 2664 2701 2702 2703 2707 2708 2709
208 209 210 1744 1745 1746 2320 2321 2322 2326 2327 2328 2500 2501 2502 2503 2504 2505 2524 2525 2526 2527 2528 2529 2560 2561 2562 2563 2564 2565 2656 2657 2658 2659 2660 2661 2704 2705 2706 2710 2711 2712
208 209 210 1744 1745 1746 2320 2321 2322 2326 2327 2328 2500 2501 2502 2503 2504 2505 2524 2525 2526 2527 2528 2529 2560 2561 2562 2563 2564 2565 2656 2657 2658 2659 2660 2661 2704 2705 2706 2710 2711 2712
208 209 210 1744 1745 1746 2320 2321 2322 2326 2327 2328 2500 2501 2502 2503 2504 2505 2524 2525 2526 2527 2528 2529 2560 2561 2562 2563 2564 2565 2656 2657 2658 2659 2660 2661 2704 2705 2706 2710 2711 2712
211 212 213 1747 1748 1749 2317 2318 2319 2323 2324 2325 2500 2501 2502 2503 2504 2505 2524 2525 2526 2527 2528 2529 2560 2561 2562 2563 2564 2565 2656 2657 2658 2659 2660 2661 2701 2702 2703 2707 2708 2709
211 212 213 1747 1748 1749 2317 2318 2319 2323 2324 2325 2500 2501 2502 2503 2504 2505 2524 2525 2526 2527 2528 2529 2560 2561 2562 2563 2564 2565 2656 2657 2658 2659 2660 2661 2701 2702 2703 2707 2708 2709
211 212 213 1747 1748 1749 2317 2318 2319 2323 2324 2325 2500 2501 2502 2503 2504 2505 2524 2525 2526 2527 2528 2529 2560 2561 2562 2563 2564 2565 2656 2657 2658 2659 2660 2661 2701 2702 2703 2707 2708 2709
214 215 216 1750 1751 1752 2320 2321 2322 2326 2327 2328 2497 2498 2499 2506 2507 2508 2521 2522 2523 2530 2531 2532 2557 2558 2559 2566 2567 2568 2653 2654 2655 2662 2663 2664 2704 2705 2706 2710 2711 2712
214 215 216 1750 1751 1752 2320 2321 2322 2326 2327 2328 2497 2498 2499 2506 2507 2508 2521 2522 2523 2530 2531 2532 2557 2558 2559 2566 2567 2568 2653 2654 2655 2662 2663 2664 2704 2705 2706 2710 2711 2712
214 215 216 1750 1751 1752 2320 2321 2322 2326 2327 2328 2497 2498 2499 2506 2507 2508 2521 2522 2523 2530 2531 2532 2557 2558 2559 2566 2567 2568 2653 2654 2655 2662 2663 2664 2704 2705 2706 2710 2711 2712
217 218 219 1753 1754 1755 2329 2330 2331 2335 2336 2337 2509 2510 2511 2518 2519 2520 2533 2534 2535 2542 2543 2544 2569 2570 2571 2578 2579 2580 2665 2666 2667 2674 2675 2676 2713 2714 2715 2719 2720 2721
217 218 219 1753 1754 1755 2329 2330 2331 2335 2336 2337 2509 2510 2511 2518 2519 2520 2533 2534 2535 2542 2543 2544 2569 2570 2571 2578 2579 2580 2665 2666 2667 2674 2675 2676 2713 2714 2715 2719 2720 2721
217 218 219 1753 1754 1755 2329 2330 2331 2335 2336 2337 2509 2510 2511 2518 2519 2520 2533 2534 2535 2542 2543 2544 2569 2570 2571 2578 2579 2580 2665 2666 2667 2674 2675 2676 2713 2714 2715 2719 2720 2721
220 221 222 1756 1757 1758 2332 2333 2334 2338 2339 2340 2512 2513 2514 2515 2516 2517 2536 2537 2538 2539 2540 2541 2572 2573 2574 2575 2576 2577 2668 2669 2670 2671 2672 2673 2716 2717 2718 2722 2723 2724
220 221 222 1756 1757 1758 2332 2333 2334 2338 2339 2340 2512 2513 2514 2515 2516 2517 2536 2537 2538 2539 2540 2541 2572 2573 2574 2575 2576 2577 2668 2669 2670 2671 2672 2673 2716 2717 2718 2722 2723 2724
220 221 222 1756 1757 1758 2332 2333 2334 2338 2339 2340 2512 2513 2514 2515 2516 2517 2536 2537 2538 2539 2540 2541 2572 2573 2574 2575 2576 2577 2668 2669 2670 2671 2672 2673 2716 2717 2718 2722 2723 2724
223 224 225 1759 1760 1761 2329 2330 2331 2335 2336 2337 2512 2513 2514 2515 2516 2517 2536 2537 2538 2539 2540 2541 2572 2573 2574 2575 2576 2577 2668 2669 2670 2671 2672 2673 2713 2714 2715 2719 2720 2721
223 224 225 1759 1760 1761 2329 2330 2331 2335 2336 2337 2512 2513 2514 2515 2516 2517 2536 2537 2538 2539 2540 2541 2572 2573 2574 2575 2576 2577 2668 2669 2670 2671 2672 2673 2713 2714 2715 2719 2720 2721
223 224 225 1759 1760 1761 2329 2330 2331 2335 2336 2337 2512 2513 2514 2515 2516 2517 2536 2537 2538 2539 2540 2541 2572 2573 2574 2575 2576 2577 2668 2669 2670 2671 2672 2673 2713 2714 2715 2719 2720 2721
226 227 228 1762 1763 1764 2332 2333 2334 2338 2339 2340 2509 2510 2511 2518 2519 2520 2533 2534 2535 2542 2543 2544 2569 2570 2571 2578 2579 2580 2665 2666 2667 2674 2675 2676 2716 2717 2718 2722 2723 2724
226 227 228 1762 1763 1764 2332 2333 2334 2338 2339 2340 2509 2510 2511 2518 2519 2520 2533 2534 2535 2542 2543 2544 2569 2570 2571 2578 2579 2580 2665 2666 2667 2674 2675 2676 2716 2717 2718 2722 2723 2724
226 227 228 1762 1763 1764 2332 2333 2334 2338 2339 2340 2509 2510 2511 2518 2519 2520 2533 2534 2535 2542 2543 2544 2569 2570 2571 2578 2579 2580 2665 2666 2667 2674 2675 2676 2716 2717 2718 2722 2723 2724
229 230 231 1765 1766 1767 2341 2342 2343 2347 2348 2349 2497 2498 2499 2506 2507 2508 2521 2522 2523 2530 2531 2532 2581 2582 2583 2590 2591 2592 2677 2678 2679 2686 2687 2688 2725 2726 2727 2731 2732 2733
229 230 231 1765 1766 1767 2341 2342 2343 2347 2348 2349 2497 2498 2499 2506 2507 2508 2521 2522 2523 2530 2531 2532 2581 2582 2583 2590 2591 2592 2677 2678 2679 2686 2687 2688 2725 2726 2727 2731 2732 2733
229 230 231 1765 1766 1767 2341 2342 2343 2347 2348 2349 2497 2498 2499 2506 2507 2508 2521 2522 2523 2530 2531 2532 2581 2582 2583 2590 2591 2592 2677 2678 2679 2686 2687 2688 2725 2726 2727 2731 2732 2733
232 233 234 1768 1769 1770 2344 2345 2346 2350 2351 2352 2500 2501 2502 2503 2504 2505 2524 2525 2526 2527 2528 2529 2584 2585 2586 2587 2588 2589 2680 2681 2682 2683 2684 2685 2728 2729 2730 2734 2735 2736
232 233 234 1768 1769 1770 2344 2345 2346 2350 2351 2352 2500 2501 2502 2503 2504 2505 2524 2525 2526 2527 2528 2529 2584 2585 2586 2587 2588 2589 2680 2681 2682 2683 2684 2685 2728 2729 2730 2734 2735 2736
232 233 234 1768 1769 1770 2344 2345 2346 2350 2351 2352 2500 2501 2502 2503 2504 2505 2524 2525 2526 2527 2528 2529 2584 2585 2586 2587 2588 2589 2680 2681 2682 2683 2684 2685 2728 2729 2730 2734 2735 2736
235 236 237 1771 1772 1773 2341 2342 2343 2347 2348 2349 2500 2501 2502 2503 2504 2505 2524 2525 2526 2527 2528 2529 2584 2585 2586 2587 2588 2589 2680 2681 2682 2683 2684 2685 2725 2726 2727 2731 2732 2733
235 236 237 1771 1772 1773 2341 2342 2343 2347 2348 2349 2500 2501 2502 2503 2504 2505 2524 2525 2526 2527 2528 2529 2584 2585 2586 2587 2588 2589 2680 2681 2682 2683 2684 2685 2725 2726 2727 2731 2732 2733
235 236 237 1771 1772 1773 2341 2342 2343 2347 2348 2349 2500 2501 2502 2503 2504 2505 2524 2525 2526 2527 2528 2529 2584 2585 2586 2587 2588 2589 2680 2681 2682 2683 2684 2685 2725 2726 2727 2731 2732 2733
238 239 240 1774 1775 1776 2344 2345 2346 2350 2351 2352 2497 2498 2499 2506 2507 2508 2521 2522 2523 2530 2531 2532 2581 2582 2583 2590 2591 2592 2677 2678 2679 2686 2687 2688 2728 2729 2730 2734 2735 2736
238 239 240 1774 1775 1776 2344 2345 2346 2350 2351 2352 2497 2498 2499 2506 2507 2508 2521 2522 2523 2530 2531 2532 2581 2582 2583 2590 2591 2592 2677 2678 2679 2686 2687 2688 2728 2729 2730 2734 2735 2736
238 239 240 1774 1775 1776 2344 2345 2346 2350 2351 2352 2497 2498 2499 2506 2507 2508 2521 2522 2523 2530 2531 2532 2581 2582 2583 2590 2591 2592 2677 2678 2679 2686 2687 2688 2728 2729 2730 2734 2735 2736
241 242 243 1777 1778 1779 2353 2354 2355 2359 2360 2361 2497 2498 2499 2506 2507 2508 2557 2558 2559 2566 2567 2568 2581 2582 2583 2590 2591 2592 2593 2594 2595 2602 2603 2604 2737 2738 2739 2743 2744 2745
241 242 243 1777 1778 1779 2353 2354 2355 2359 2360 2361 2497 2498 2499 2506 2507 2508 2557 2558 2559 2566 2567 2568 2581 2582 2583 2590 2591 2592 2593 2594 2595 2602 2603 2604 2737 2738 2739 2743 2744 2745
241 242 243 1777 1778 1779 2353 2354 2355 2359 2360 2361 2497 2498 2499 2506 2507 2508 2557 2558 2559 2566 2567 2568 2581 2582 2583 2590 2591 2592 2593 2594 2595 2602 2603 2604 2737 2738 2739 2743 2744 2745
244 245 246 1780 1781 1782 2356 2357 2358 2362 2363 2364 2500 2501 2502 2503 2504 2505 2560 2561 2562 2563 2564 2565 2584 2585 2586 2587 2588 2589 2596 2597 2598 2599 2600 2601 2740 2741 2742 2746 2747 2748
244 245 246 1780 1781 1782 2356 2357 2358 2362 2363 2364 2500 2501 2502 2503 2504 2505 2560 2561 2562 2563 2564 2565 2584 2585 2586 2587 2588 2589 2596 2597 2598 2599 2600 2601 2740 2741 2742 2746 2747 2748
244 245 246 1780 1781 1782 2356 2357 2358 2362 2363 2364 2500 2501 2502 2503 2504 2505 2560 2561 2562 2563 2564 2565 2584 2585 2586 2587 2588 2589 2596 2597 2598 2599 2600 2601 2740 2741 2742 2746 2747 2748
247 248 249 1783 1784 1785 2353 2354 2355 2359 2360 2361 2500 2501 2502 2503 2504 2505 2560 2561 2562 2563 2564 2565 2584 2585 2586 2587 2588 2589 2596 2597 2598 2599 2600 2601 2737 2738 2739 2743 2744 2745
247 248 249 1783 1784 1785 2353 2354 2355 2359 2360 2361 2500 2501 2502 2503 2504 2505 2560 2561 2562 2563 2564 2565 2584 2585 2586 2587 2588 2589 2596 2597 2598 2599 2600 2601 2737 2738 2739 2743 2744 2745
247 248 249 1783 1784 1785 2353 2354 2355 2359 2360 2361 2500 2501 2502 2503 2504 2505 2560 2561 2562 2563 2564 2565 2584 2585 2586 2587 2588 2589 2596 2597 2598 2599 2600 2601 2737 2738 2739 2743 2744 2745
250 251 252 1786 1787 1788 2356 2357 2358 2362 2363 2364 2497 2498 2499 2506 2507 2508 2557 2558 2559 2566 2567 2568 2581 2582 2583 2590 2591 2592 2593 2594 2595 2602 2603 2604 2740 2741 2742 2746 2747 2748
250 251 252 1786 1787 1788 2356 2357 2358 2362 2363 2364 2497 2498 2499 2506 2507 2508 2557 2558 2559 2566 2567 2568 2581 2582 2583 2590 2591 2592 2593 2594 2595 2602 2603 2604 2740 2741 2742 2746 2747 2748
250 251 252 1786 1787 1788 2356 2357 2358 2362 2363 2364 2497 2498 2499 2506 2507 2508 2557 2558 2559 2566 2567 2568 2581 2582 2583 2590 2591 2592 2593 2594 2595 2602 2603 2604 2740 2741 2742 2746 2747 2748
253 254 255 1789 1790 1791 2365 2366 2367 2371 2372 2373 2509 2510 2511 2518 2519 2520 2545 2546 2547 2554 2555 2556 2569 2570 2571 2578 2579 2580 2605 2606 2607 2614 2615 2616 2749 2750 2751 2755 2756 2757
253 254 255 1789 1790 1791 2365 2366 2367 2371 2372 2373 2509 2510 2511 2518 2519 2520 2545 2546 2547 2554 2555 2556 2569 2570 2571 2578 2579 2580 2605 2606 2607 2614 2615 2616 2749 2750 2751 2755 2756 2757
253 254 255 1789 1790 1791 2365 2366 2367 2371 2372 2373 2509 2510 2511 2518 2519 2520 2545 2546 2547 2554 2555 2556 2569 2570 2571 2578 2579 2580 2605 2606 2607 2614 2615 2616 2749 2750 2751 2755 2756 2757
256 257 258 1792 1793 1794 2368 2369 2370 2374 2375 2376 2512 2513 2514 2515 2516 2517 2548 2549 2550 2551 2552 2553 2572 2573 2574 2575 2576 2577 2608 2609 2610 2611 2612 2613 2752 2753 2754 2758 2759 2760
256 257 258 1792 1793 1794 2368 2369 2370 2374 2375 2376 2512 2513 2514 2515 2516 2517 2548 2549 2550 2551 2552 2553 2572 2573 2574 2575 2576 2577 2608 2609 2610 2611 2612 2613 2752 2753 2754 2758 2759 2760
256 257 258 1792 1793 1794 2368 2369 2370 2374 2375 2376 2512 2513 2514 2515 2516 2517 2548 2549 2550 2551 2552 2553 2572 2573 2574 2575 2576 2577 2608 2609 2610 2611 2612 2613 2752 2753 2754 2758 2759 2760
259 260 261 1795 1796 1797 2365 2366 2367 2371 2372 2373 2512 2513 2514 2515 2516 2517 2548 2549 2550 2551 2552 2553 2572 2573 2574 2575 2576 2577 2608 2609 2610 2611 2612 2613 2749 2750 2751 2755 2756 2757
259 260 261 1795 1796 1797 2365 2366 2367 2371 2372 2373 2512 2513 2514 2515 2516 2517 2548 2549 2550 2551 2552 2553 2572 2573 2574 2575 2576 2577 2608 2609 2610 2611 2612 2613 2749 2750 2751 2755 2756 2757
259 260 261 1795 1796 1797 2365 2366 2367 2371 2372 2373 2512 2513 2514 2515 2516 2517 2548 2549 2550 2551 2552 2553 2572 2573 2574 2575 2576 2577 2608 2609 2610 2611 2612 2613 2749 2750 2751 2755 2756 2757
262 263 264 1798 1799 1800 2368 2369 2370 2374 2375 2376 2509 2510 2511 2518 2519 2520 2545 2546 2547 2554 2555 2556 2569 2570 2571 2578 2579 2580 2605 2606 2607 2614 2615 2616 2752 2753 2754 2758 2759 2760
262 263 264 1798 1799 1800 2368 2369 2370 2374 2375 2376 2509 2510 2511 2518 2519 2520 2545 2546 2547 2554 2555 2556 2569 2570 2571 2578 2579 2580 2605 2606 2607 2614 2615 2616 2752 2753 2754 2758 2759 2760
262 263 264 1798 1799 1800 2368 2369 2370 2374 2375 2376 2509 2510 2511 2518 2519 2520 2545 2546 2547 2554 2555 2556 2569 2570 2571 2578 2579 2580 2605 2606 2607 2614 2615 2616 2752 2753 2754 2758 2759 2760
265 266 267 1801 1802 1803 2377 2378 2379 2383 2384 2385 2521 2522 2523 2530 2531 2532 2557 2558 2559 2566 2567 2568 2581 2582 2583 2590 2591 2592 2617 2618 2619 2626 2627 2628 2761 2762 2763 2767 2768 2769
265 266 267 1801 1802 1803 2377 2378 2379 2383 2384 2385 2521 2522 2523 2530 2531 2532 2557 2558 2559 2566 2567 2568 2581 2582 2583 2590 2591 2592 2617 2618 2619 2626 2627 2628 2761 2762 2763 2767 2768 2769
265 266 267 1801 1802 1803 2377 2378 2379 2383 2384 2385 2521 2522 2523 2530 2531 2532 2557 2558 2559 2566 2567 2568 2581 2582 2583 2590 2591 2592 2617 2618 2619 2626 2627 2628 2761 2762 2763 2767 2768 2769
268 269 270 1804 1805 1806 2380 2381 2382 2386 2387 2388 2524 2525 2526 2527 2528 2529 2560 2561 2562 2563 2564 2565 2584 2585 2586 2587 2588 2589 2620 2621 2622 2623 2624 2625 2764 2765 2766 2770 2771 2772
268 269 270 1804 1805 1806 2380 2381 2382 2386 2387 2388 2524 2525 2526 2527 2528 2529 2560 2561 2562 2563 2564 2565 2584 2585 2586 2587 2588 2589 2620 2621 2622 2623 2624 2625 2764 2765 2766 2770 2771 2772
268 269 270 1804 1805 1806 2380 2381 2382 2386 2387 2388 2524 2525 2526 2527 2528 2529 2560 2561 2562 2563 2564 2565 2584 2585 2586 2587 2588 2589 2620 2621 2622 2623 2624 2625 2764 2765 2766 2770 2771 2772
271 272 273 1807 1808 1809 2377 2378 2379 2383 2384 2385 2524 2525 2526 2527 2528 2529 2560 2561 2562 2563 2564 2565 2584 2585 2586 2587 2588 2589 2620 2621 2622 2623 2624 2625 2761 2762 2763 2767 2768 2769
271 272 273 1807 1808 1809 2377 2378 2379 2383 2384 2385 2524 2525 2526 2527 2528 2529 2560 2561 2562 2563 2564 2565 2584 2585 2586 2587 2588 2589 2620 2621 2622 2623 2624 2625 2761 2762 2763 2767 2768 2769
271 272 273 1807 1808 1809 2377 2378 2379 2383 2384 2385 2524 2525 2526 2527 2528 2529 2560 2561 2562 2563 2564 2565 2584 2585 2586 2587 2588 2589 2620 2621 2622 2623 2624 2625 2761 2762 2763 2767 2768 2769
274 275 276 1810 1811 1812 2380 2381 2382 2386 2387 2388 2521 2522 2523 2530 2531 2532 2557 2558 2559 2566 2567 2568 2581 2582 2583 2590 2591 2592 2617 2618 2619 2626 2627 2628 2764 2765 2766 2770 2771 2772
274 275 276 1810 1811 1812 2380 2381 2382 2386 2387 2388 2521 2522 2523 2530 2531 2532 2557 2558 2559 2566 2567 2568 2581 2582 2583 2590 2591 2592 2617 2618 2619 2626 2627 2628 2764 2765 2766 2770 2771 2772
274 275 276 1810 1811 1812 2380 2381 2382 2386 2387 2388 2521 2522 2523 2530 2531 2532 2557 2558 2559 2566 2567 2568 2581 2582 2583 2590 2591 2592 2617 2618 2619 2626 2627 2628 2764 2765 2766 2770 2771 2772
277 278 279 1813 1814 1815 2389 2390 2391 2395 2396 2397 2533 2534 2535 2542 2543 2544 2545 2546 2547 2554 2555 2556 2569 2570 2571 2578 2579 2580 2629 2630 2631 2638 2639 2640 2773 2774 2775 2779 2780 2781
277 278 279 1813 1814 1815 2389 2390 2391 2395 2396 2397 2533 2534 2535 2542 2543 2544 2545 2546 2547 2554 2555 2556 2569 2570 2571 2578 2579 2580 2629 2630 2631 2638 2639 2640 2773 2774 2775 2779 2780 2781
277 278 279 1813 1814 1815 2389 2390 2391 2395 2396 2397 2533 2534 2535 2542 2543 2544 2545 2546 2547 2554 2555 2556 2569 2570 2571 2578 2579 2580 2629 2630 2631 2638 2639 2640 2773 2774 2775 2779 2780 2781
280 281 282 1816 1817 1818 2392 2393 2394 2398 2399 2400 2536 2537 2538 2539 2540 2541 2548 2549 2550 2551 2552 2553 2572 2573 2574 2575 2576 2577 2632 2633 2634 2635 2636 2637 2776 2777 2778 2782 2783 2784
280 281 282 1816 1817 1818 2392 2393 2394 2398 2399 2400 2536 2537 2538 2539 2540 2541 2548 2549 2550 2551 2552 2553 2572 2573 2574 2575 2576 2577 2632 2633 2634 2635 2636 2637 2776 2777 2778 2782 2783 2784
280 281 282 1816 1817 1818 2392 2393 2394 2398 2399 2400 2536 2537 2538 2539 2540 2541 2548 2549 2550 2551 2552 2553 2572 2573 2574 2575 2576 2577 2632 2633 2634 2635 2636 2637 2776 2777 2778 2782 2783 2784
283 284 285 1819 1820 1821 2389 2390 2391 2395 2396 2397 2536 2537 2538 2539 2540 2541 2548 2549 2550 2551 2552 2553 2572 2573 2574 2575 2576 2577 2632 2633 2634 2635 2636 2637 2773 2774 2775 2779 2780 2781
283 284 285 1819 1820 1821 2389 2390 2391 2395 2396 2397 2536 2537 2538 2539 2540 2541 2548 2549 2550 2551 2552 2553 2572 2573 2574 2575 2576 2577 2632 2633 2634 2635 2636 2637 2773 2774 2775 2779 2780 2781
283 284 285 1819 1820 1821 2389 2390 2391 2395 2396 2397 2536 2537 2538 2539 2540 2541 2548 2549 2550 2551 2552 2553 2572 2573 2574 2575 2576 2577 2632 2633 2634 2635 2636 2637 2773 2774 2775 2779 2780 2781
286 287 288 1822 1823 1824 2392 2393 2394 2398 2399 2400 2533 2534 2535 2542 2543 2544 2545 2546 2547 2554 2555 2556 2569 2570 2571 2578 2579 2580 2629 2630 2631 2638 2639 2640 2776 2777 2778 2782 2783 2784
286 287 288 1822 1823 1824 2392 2393 2394 2398 2399 2400 2533 2534 2535 2542 2543 2544 2545 2546 2547 2554 2555 2556 2569 2570 2571 2578 2579 2580 2629 2630 2631 2638 2639 2640 2776 2777 2778 2782 2783 2784
286 287 288 1822 1823 1824 2392 2393 2394 2398 2399 2400 2533 2534 2535 2542 2543 2544 2545 2546 2547 2554 2555 2556 2569 2570 2571 2578 2579 2580 2629 2630 2631 2638 2639 2640 2776 2777 2778 2782 2783 2784
289 290 291 1825 1826 1827 2401 2402 2403 2407 2408 2409 2545 2546 2547 2554 2555 2556 2605 2606 2607 2614 2615 2616 2629 2630 2631 2638 2639 2640 2641 2642 2643 2650 2651 2652 2785 2786 2787 2791 2792 2793
289 290 291 1825 1826 1827 2401 2402 2403 2407 2408 2409 2545 2546 2547 2554 2555 2556 2605 2606 2607 2614 2615 2616 2629 2630 2631 2638 2639 2640 2641 2642 2643 2650 2651 2652 2785 2786 2787 2791 2792 2793
289 290 291 1825 1826 1827 2401 2402 2403 2407 2408 2409 2545 2546 2547 2554 2555 2556 2605 2606 2607 2614 2615 2616 2629 2630 2631 2638 2639 2640 2641 2642 2643 2650 2651 2652 2785 2786 2787 2791 2792 2793
292 293 294 1828 1829 1830 2404 2405 2406 2410 2411 2412 2548 2549 2550 2551 2552 2553 2608 2609 2610 2611 2612 2613 2632 2633 2634 2635 2636 2637 2644 2645 2646 2647 2648 2649 2788 2789 2790 2794 2795 2796
292 293 294 1828 1829 1830 2404 2405 2406 2410 2411 2412 2548 2549 2550 2551 2552 2553 2608 2609 2610 2611 2612 2613 2632 2633 2634 2635 2636 2637 2644 2645 2646 2647 2648 2649 2788 2789 2790 2794 2795 2796
292 293 294 1828 1829 1830 2404 2405 2406 2410 2411 2412 2548 2549 2550 2551 2552 2553 2608 2609 2610 2611 2612 2613 2632 2633 2634 2635 2636 2637 2644 2645 2646 2647 2648 2649 2788 2789 2790 2794 2795 2796
295 296 297 1831 1832 1833 2401 2402 2403 2407 2408 2409 2548 2549 2550 2551 2552 2553 2608 2609 2610 2611 2612 2613 2632 2633 2634 2635 2636 2637 2644 2645 2646 2647 2648 2649 2785 2786 2787 2791 2792 2793
295 296 297 1831 1832 1833 2401 2402 2403 2407 2408 2409 2548 2549 2550 2551 2552 2553 2608 2609 2610 2611 2612 2613 2632 2633 2634 2635 2636 2637 2644 2645 2646 2647 2648 2649 2785 2786 2787 2791 2792 2793
295 296 297 1831 1832 1833 2401 2402 2403 2407 2408 2409 2548 2549 2550 2551 2552 2553 2608 2609 2610 2611 2612 2613 2632 2633 2634 2635 2636 2637 2644 2645 2646 2647 2648 2649 2785 2786 2787 2791 2792 2793
298 299 300 1834 1835 1836 2404 2405 2406 2410 2411 2412 2545 2546 2547 2554 2555 2556 2605 2606 2607 2614 2615 2616 2629 2630 2631 2638 2639 2640 2641 2642 2643 2650 2651 2652 2788 2789 2790 2794 2795 2796
298 299 300 1834 1835 1836 2404 2405 2406 2410 2411 2412 2545 2546 2547 2554 2555 2556 2605 2606 2607 2614 2615 2616 2629 2630 2631 2638 2639 2640 2641 2642 2643 2650 2651 2652 2788 2789 2790 2794 2795 2796
298 299 300 1834 1835 1836 2404 2405 2406 2410 2411 2412 2545 2546 2547 2554 2555 2556 2605 2606 2607 2614 2615 2616 2629 2630 2631 2638 2639 2640 2641 2642 2643 2650 2651 2652 2788 2789 2790 2794 2795 2796
301 302 303 1837 1838 1839 2413 2414 2415 2419 2420 2421 2557 2558 2559 2566 2567 2568 2593 2594 2595 2602 2603 2604 2617 2618 2619 2626 2627 2628 2653 2654 2655 2662 2663 2664 2797 2798 2799 2803 2804 2805
301 302 303 1837 1838 1839 2413 2414 2415 2419 2420 2421 2557 2558 2559 2566 2567 2568 2593 2594 2595 2602 2603 2604 2617 2618 2619 2626 2627 2628 2653 2654 2655 2662 2663 2664 2797 2798 2799 2803 2804 2805
301 302 303 1837 1838 1839 2413 2414 2415 2419 2420 2421 2557 2558 2559 2566 2567 2568 2593 2594 2595 2602 2603 2604 2617 2618 2619 2626 2627 2628 2653 2654 2655 2662 2663 2664 2797 2798 2799 2803 2804 2805
304 305 306 1840 1841 1842 2416 2417 2418 2422 2423 2424 2560 2561 2562 2563 2564 2565 2596 2597 2598 2599 2600 2601 2620 2621 2622 2623 2624 2625 2656 2657 2658 2659 2660 2661 2800 2801 2802 2806 2807 2808
304 305 306 1840 1841 1842 2416 2417 2418 2422 2423 2424 2560 2561 2562 2563 2564 2565 2596 2597 2598 2599 2600 2601 2620 2621 2622 2623 2624 2625 2656 2657 2658 2659 2660 2661 2800 2801 2802 2806 2807 2808
304 305 306 1840 1841 1842 2416 2417 2418 2422 2423 2424 2560 2561 2562 2563 2564 2565 2596 2597 2598 2599 2600 2601 2620 2621 2622 2623 2624 2625 2656 2657 2658 2659 2660 2661 2800 2801 2802 2806 2807 2808
307 308 309 1843 1844 1845 2413 2414 2415 2419 2420 2421 2560 2561 2562 2563 2564 2565 2596 2597 2598 2599 2600 2601 2620 2621 2622 2623 2624 2625 2656 2657 2658 2659 2660 2661 2797 2798 2799 2803 2804 2805
307 308 309 1843 1844 1845 2413 2414 2415 2419 2420 2421 2560 2561 2562 2563 2564 2565 2596 2597 2598 2599 2600 2601 2620 2621 2622 2623 2624 2625 2656 2657 2658 2659 2660 2661 2797 2798 2799 2803 2804 2805
307 308 309 1843 1844 1845 2413 2414 2415 2419 2420 2421 2560 2561 2562 2563 2564 2565 2596 2597 2598 2599 2600 2601 2620 2621 2622 2623 2624 2625 2656 2657 2658 2659 2660 2661 2797 2798 2799 2803 2804 2805
310 311 312 1846 1847 1848 2416 2417 2418 2422 2423 2424 2557 2558 2559 2566 2567 2568 2593 2594 2595 2602 2603 2604 2617 2618 2619 2626 2627 2628 2653 2654 2655 2662 2663 2664 2800 2801 2802 2806 2807 2808
310 311 312 1846 1847 1848 2416 2417 2418 2422 2423 2424 2557 2558 2559 2566 2567 2568 2593 2594 2595 2602 2603 2604 2617 2618 2619 2626 2627 2628 2653 2654 2655 2662 2663 2664 2800 2801 2802 2806 2807 2808
310 311 312 1846 1847 1848 2416 2417 2418 2422 2423 2424 2557 2558 2559 2566 2567 2568 2593 2594 2595 2602 2603 2604 2617 2618 2619 2626 2627 2628 2653 2654 2655 2662 2663 2664 2800 2801 2802 2806 2807 2808
313 314 315 1849 1850 1851 2425 2426 2427 2431 2432 2433 2569 2570 2571 2578 2579 2580 2605 2606 2607 2614 2615 2616 2629 2630 2631 2638 2639 2640 2665 2666 2667 2674 2675 2676 2809 2810 2811 2815 2816 2817
313 314 315 1849 1850 1851 2425 2426 2427 2431 2432 2433 2569 2570 2571 2578 2579 2580 2605 2606 2607 2614 2615 2616 2629 2630 2631 2638 2639 2640 2665 2666 2667 2674 2675 2676 2809 2810 2811 2815 2816 2817
313 314 315 1849 1850 1851 2425 2426 2427 2431 2432 2433 2569 2570 2571 2578 2579 2580 2605 2606 2607 2614 2615 2616 2629 2630 2631 2638 2639 2640 2665 2666 2667 2674 2675 2676 2809 2810 2811 2815 2816 2817
316 317 318 1852 1853 1854 2428 2429 2430 2434 2435 2436 2572 2573 2574 2575 2576 2577 2608 2609 2610 2611 2612 2613 2632 2633 2634 2635 2636 2637 2668 2669 2670 2671 2672 2673 2812 2813 2814 2818 2819 2820
316 317 318 1852 1853 1854 2428 2429 2430 2434 2435 2436 2572 2573 2574 2575 2576 2577 2608 2609 2610 2611 2612 2613 2632 2633 2634 2635 2636 2637 2668 2669 2670 2671 2672 2673 2812 2813 2814 2818 2819 2820
316 317 318 1852 1853 1854 2428 2429 2430 2434 2435 2436 2572 2573 2574 2575 2576 2577 2608 2609 2610 2611 2612 2613 2632 2633 2634 2635 2636 2637 2668 2669 2670 2671 2672 2673 2812 2813 2814 2818 2819 2820
319 320 321 1855 1856 1857 2425 2426 2427 2431 2432 2433 2572 2573 2574 2575 2576 2577 2608 2609 2610 2611 2612 2613 2632 2633 2634 2635 2636 2637 2668 2669 2670 2671 2672 2673 2809 2810 2811 2815 2816 2817
319 320 321 1855 1856 1857 2425 2426 2427 2431 2432 2433 2572 2573 2574 2575 2576 2577 2608 2609 2610 2611 2612 2613 2632 2633 2634 2635 2636 2637 2668 2669 2670 2671 2672 2673 2809 2810 2811 2815 2816 2817
319 320 321 1855 1856 1857 2425 2426 2427 2431 2432 2433 2572 2573 2574 2575 2576 2577 2608 2609 2610 2611 2612 2613 2632 2633 2634 2635 2636 2637 2668 2669 2670 2671 2672 2673 2809 2810 2811 2815 2816 2817
322 323 324 1858 1859 1860 2428 2429 2430 2434 2435 2436 2569 2570 2571 2578 2579 2580 2605 2606 2607 2614 2615 2616 2629 2630 2631 2638 2639 2640 2665 2666 2667 2674 2675 2676 2812 2813 2814 2818 2819 2820
322 323 324 1858 1859 1860 2428 2429 2430 2434 2435 2436 2569 2570 2571 2578 2579 2580 2605 2606 2607 2614 2615 2616 2629 2630 2631 2638 2639 2640 2665 2666 2667 2674 2675 2676 2812 2813 2814 2818 2819 2820
322 323 324 1858 1859 1860 2428 2429 2430 2434 2435 2436 2569 2570 2571 2578 2579 2580 2605 2606 2607 2614 2615 2616 2629 2630 2631 2638 2639 2640 2665 2666 2667 2674 2675 2676 2812 2813 2814 2818 2819 2820
325 326 327 1861 1862 1863 2437 2438 2439 2443 2444 2445 2581 2582 2583 2590 2591 2592 2593 2594 2595 2602 2603 2604 2617 2618 2619 2626 2627 2628 2677 2678 2679 2686 2687 2688 2821 2822 2823 2827 2828 2829
325 326 327 1861 1862 1863 2437 2438 2439 2443 2444 2445 2581 2582 2583 2590 2591 2592 2593 2594 2595 2602 2603 2604 2617 2618 2619 2626 2627 2628 2677 2678 2679 2686 2687 2688 2821 2822 2823 2827 2828 2829
325 326 327 1861 1862 1863 2437 2438 2439 2443 2444 2445 2581 2582 2583 2590 2591 2592 2593 2594 2595 2602 2603 2604 2617 2618 2619 2626 2627 2628 2677 2678 2679 2686 2687 2688 2821 2822 2823 2827 2828 2829
328 329 330 1864 1865 1866 2440 2441 2442 2446 2447 2448 2584 2585 2586 2587 2588 2589 2596 2597 2598 2599 2600 2601 2620 2621 2622 2623 2624 2625 2680 2681 2682 2683 2684 2685 2824 2825 2826 2830 2831 2832
328 329 330 1864 1865 1866 2440 2441 2442 2446 2447 2448 2584 2585 2586 2587 2588 2589 2596 2597 2598 2599 2600 2601 2620 2621 2622 2623 2624 2625 2680 2681 2682 2683 2684 2685 2824 2825 2826 2830 2831 2832
328 329 330 1864 1865 1866 2440 2441 2442 2446 2447 2448 2584 2585 2586 2587 2588 2589 2596 2597 2598 2599 2600 2601 2620 2621 2622 2623 2624 2625 2680 2681 2682 2683 2684 2685 2824 2825 2826 2830 2831 2832
331 332 333 1867 1868 1869 2437 2438 2439 2443 2444 2445 2584 2585 2586 2587 2588 2589 2596 2597 2598 2599 2600 2601 2620 2621 2622 2623 2624 2625 2680 2681 2682 2683 2684 2685 2821 2822 2823 2827 2828 2829
331 332 333 1867 1868 1869 2437 2438 2439 2443 2444 2445 2584 2585 2586 2587 2588 2589 2596 2597 2598 2599 2600 2601 2620 2621 2622 2623 2624 2625 2680 2681 2682 2683 2684 2685 2821 2822 2823 2827 2828 2829
331 332 333 1867 1868 1869 2437 2438 2439 2443 2444 2445 2584 2585 2586 2587 2588 2589 2596 2597 2598 2599 2600 2601 2620 2621 2622 2623 2624 2625 2680 2681 2682 2683 2684 2685 2821 2822 2823 2827 2828 2829
334 335 336 1870 1871 1872 2440 2441 2442 2446 2447 2448 2581 2582 2583 2590 2591 2592 2593 2594 2595 2602 2603 2604 2617 2618 2619 2626 2627 2628 2677 2678 2679 2686 2687 2688 2824 2825 2826 2830 2831 2832
334 335 336 1870 1871 1872 2440 2441 2442 2446 2447 2448 2581 2582 2583 2590 2591 2592 2593 2594 2595 2602 2603 2604 2617 2618 2619 2626 2627 2628 2677 2678 2679 2686 2687 2688 2824 2825 2826 2830 2831 2832
334 335 336 1870 1871 1872 2440 2441 2442 2446 2447 2448 2581 2582 2583 2590 2591 2592 2593 2594 2595 2602 2603 2604 2617 2618 2619 2626 2627 2628 2677 2678 2679 2686 2687 2688 2824 2825 2826 2830 2831 2832
337 338 339 1873 1874 1875 2449 2450 2451 2455 2456 2457 2497 2498 2499 2506 2507 2508 2593 2594 2595 2602 2603 2604 2653 2654 2655 2662 2663 2664 2677 2678 2679 2686 2687 2688 2833 2834 2835 2839 2840 2841
337 338 339 1873 1874 1875 2449 2450 2451 2455 2456 2457 2497 2498 2499 2506 2507 2508 2593 2594 2595 2602 2603 2604 2653 2654 2655 2662 2663 2664 2677 2678 2679 2686 2687 2688 2833 2834 2835 2839 2840 2841
337 338 339 1873 1874 1875 2449 2450 2451 2455 2456 2457 2497 2498 2499 2506 2507 2508 2593 2594 2595 2602 2603 2604 2653 2654 2655 2662 2663 2664 2677 2678 2679 2686 2687 2688 2833 2834 2835 2839 2840 2841
340 341 342 1876 1877 1878 2452 2453 2454 2458 2459 2460 2500 2501 2502 2503 2504 2505 2596 2597 2598 2599 2600 2601 2656 2657 2658 2659 2660 2661 2680 2681 2682 2683 2684 2685 2836 2837 2838 2842 2843 2844
340 341 342 1876 1877 1878 2452 2453 2454 2458 2459 2460 2500 2501 2502 2503 2504 2505 2596 2597 2598 2599 2600 2601 2656 2657 2658 2659 2660 2661 2680 2681 2682 2683 2684 2685 2836 2837 2838 2842 2843 2844
340 341 342 1876 1877 1878 2452 2453 2454 2458 2459 2460 2500 2501 2502 2503 2504 2505 2596 2597 2598 2599 2600 2601 2656 2657 2658 2659 2660 2661 2680 2681 2682 2683 2684 2685 2836 2837 2838 2842 2843 2844
343 344 345 1879 1880 1881 2449 2450 2451 2455 2456 2457 2500 2501 2502 2503 2504 2505 2596 2597 2598 2599 2600 2601 2656 2657 2658 2659 2660 2661 2680 2681 2682 2683 2684 2685 2833 2834 2835 2839 2840 2841
343 344 345 1879 1880 1881 2449 2450 2451 2455 2456 2457 2500 2501 2502 2503 2504 2505 2596 2597 2598 2599 2600 2601 2656 2657 2658 2659 2660 2661 2680 2681 2682 2683 2684 2685 2833 2834 2835 2839 2840 2841
343 344 345 1879 1880 1881 2449 2450 2451 2455 2456 2457 2500 2501 2502 2503 2504 2505 2596 2597 2598 2599 2600 2601 2656 2657 2658 2659 2660 2661 2680 2681 2682 2683 2684 2685 2833 2834 2835 2839 2840 2841
346 347 348 1882 1883 1884 2452 2453 2454 2458 2459 2460 2497 2498 2499 2506 2507 2508 2593 2594 2595 2602 2603 2604 2653 2654 2655 2662 2663 2664 2677 2678 2679 2686 2687 2688 2836 2837 2838 2842 2843 2844
346 347 348 1882 1883 1884 2452 2453 2454 2458 2459 2460 2497 2498 2499 2506 2507 2508 2593 2594 2595 2602 2603 2604 2653 2654 2655 2662 2663 2664 2677 2678 2679 2686 2687 2688 2836 2837 2838 2842 2843 2844
346 347 348 1882 1883 1884 2452 2453 2454 2458 2459 2460 2497 2498 2499 2506 2507 2508 2593 2594 2595 2602 2603 2604 2653 2654 2655 2662 2663 2664 2677 2678 2679 2686 2687 2688 2836 2837 2838 2842 2843 2844
349 350 351 1885 1886 1887 2461 2462 2463 2467 2468 2469 2509 2510 2511 2518 2519 2520 2605 2606 2607 2614 2615 2616 2641 2642 2643 2650 2651 2652 2665 2666 2667 2674 2675 2676 2845 2846 2847 2851 2852 2853
349 350 351 1885 1886 1887 2461 2462 2463 2467 2468 2469 2509 2510 2511 2518 2519 2520 2605 2606 2607 2614 2615 2616 2641 2642 2643 2650 2651 2652 2665 2666 2667 2674 2675 2676 2845 2846 2847 2851 2852 2853
349 350 351 1885 1886 1887 2461 2462 2463 2467 2468 2469 2509 2510 2511 2518 2519 2520 2605 2606 2607 2614 2615 2616 2641 2642 2643 2650 2651 2652 2665 2666 2667 2674 2675 2676 2845 2846 2847 2851 2852 2853
352 353 354 1888 1889 1890 2464 2465 2466 2470 2471 2472 2512 2513 2514 2515 2516 2517 2608 2609 2610 2611 2612 2613 2644 2645 2646 2647 2648 2649 2668 2669 2670 2671 2672 2673 2848 2849 2850 2854 2855 2856
352 353 354 1888 1889 1890 2464 2465 2466 2470 2471 2472 2512 2513 2514 2515 2516 2517 2608 2609 2610 2611 2612 2613 2644 2645 2646 2647 2648 2649 2668 2669 2670 2671 2672 2673 2848 2849 2850 2854 2855 2856
352 353 354 1888 1889 1890 2464 2465 2466 2470 2471 2472 2512 2513 2514 2515 2516 2517 2608 2609 2610 2611 2612 2613 2644 2645 2646 2647 2648 2649 2668 2669 2670 2671 2672 2673 2848 2849 2850 2854 2855 2856
355 356 357 1891 1892 1893 2461 2462 2463 2467 2468 2469 2512 2513 2514 2515 2516 2517 2608 2609 2610 2611 2612 2613 2644 2645 2646 2647 2648 2649 2668 2669 2670 2671 2672 2673 2845 2846 2847 2851 2852 2853
355 356 357 1891 1892 1893 2461 2462 2463 2467 2468 2469 2512 2513 2514 2515 2516 2517 2608 2609 2610 2611 2612 2613 2644 2645 2646 2647 2648 2649 2668 2669 2670 2671 2672 2673 2845 2846 2847 2851 2852 2853
355 356 357 1891 1892 1893 2461 2462 2463 2467 2468 2469 2512 2513 2514 2515 2516 2517 2608 2609 2610 2611 2612 2613 2644 2645 2646 2647 2648 2649 2668 2669 2670 2671 2672 2673 2845 2846 2847 2851 2852 2853
358 359 360 1894 1895 1896 2464 2465 2466 2470 2471 2472 2509 2510 2511 2518 2519 2520 2605 2606 2607 2614 2615 2616 2641 2642 2643 2650 2651 2652 2665 2666 2667 2674 2675 2676 2848 2849 2850 2854 2855 2856
358 359 360 1894 1895 1896 2464 2465 2466 2470 2471 2472 2509 2510 2511 2518 2519 2520 2605 2606 2607 2614 2615 2616 2641 2642 2643 2650 2651 2652 2665 2666 2667 2674 2675 2676 2848 2849 2850 2854 2855 2856
358 359 360 1894 1895 1896 2464 2465 2466 2470 2471 2472 2509 2510 2511 2518 2519 2520 2605 2606 2607 2614 2615 2616 2641 2642 2643 2650 2651 2652 2665 2666 2667 2674 2675 2676 2848 2849 2850 2854 2855 2856
361 362 363 1897 1898 1899 2473 2474 2475 2479 2480 2481 2521 2522 2523 2530 2531 2532 2617 2618 2619 2626 2627 2628 2653 2654 2655 2662 2663 2664 2677 2678 2679 2686 2687 2688 2857 2858 2859 2863 2864 2865
361 362 363 1897 1898 1899 2473 2474 2475 2479 2480 2481 2521 2522 2523 2530 2531 2532 2617 2618 2619 2626 2627 2628 2653 2654 2655 2662 2663 2664 2677 2678 2679 2686 2687 2688 2857 2858 2859 2863 2864 2865
361 362 363 1897 1898 1899 2473 2474 2475 2479 2480 2481 2521 2522 2523 2530 2531 2532 2617 2618 2619 2626 2627 2628 2653 2654 2655 2662 2663 2664 2677 2678 2679 2686 2687 2688 2857 2858 2859 2863 2864 2865
364 365 366 1900 1901 1902 2476 2477 2478 2482 2483 2484 2524 2525 2526 2527 2528 2529 2620 2621 2622 2623 2624 2625 2656 2657 2658 2659 2660 2661 2680 2681 2682 2683 2684 2685 2860 2861 2862 2866 2867 2868
364 365 366 1900 1901 1902 2476 2477 2478 2482 2483 2484 2524 2525 2526 2527 2528 2529 2620 2621 2622 2623 2624 2625 2656 2657 2658 2659 2660 2661 2680 2681 2682 2683 2684 2685 2860 2861 2862 2866 2867 2868
364 365 366 1900 1901 1902 2476 2477 2478 2482 2483 2484 2524 2525 2526 2527 2528 2529 2620 2621 2622 2623 2624 2625 2656 2657 2658 2659 2660 2661 2680 2681 2682 2683 2684 2685 2860 2861 2862 2866 2867 2868
367 368 369 1903 1904 1905 2473 2474 2475 2479 2480 2481 2524 2525 2526 2527 2528 2529 2620 2621 2622 2623 2624 2625 2656 2657 2658 2659 2660 2661 2680 2681 2682 2683 2684 2685 2857 2858 2859 2863 2864 2865
367 368 369 1903 1904 1905 2473 2474 2475 2479 2480 2481 2524 2525 2526 2527 2528 2529 2620 2621 2622 2623 2624 2625 2656 2657 2658 2659 2660 2661 2680 2681 2682 2683 2684 2685 2857 2858 2859 2863 2864 2865
367 368 369 1903 1904 1905 2473 2474 2475 2479 2480 2481 2524 2525 2526 2527 2528 2529 2620 2621 2622 2623 2624 2625 2656 2657 2658 2659 2660 2661 2680 2681 2682 2683 2684 2685 2857 2858 2859 2863 2864 2865
370 371 372 1906 1907 1908 2476 2477 2478 2482 2483 2484 2521 2522 2523 2530 2531 2532 2617 2618 2619 2626 2627 2628 2653 2654 2655 2662 2663 2664 2677 2678 2679 2686 2687 2688 2860 2861 2862 2866 2867 2868
370 371 372 1906 1907 1908 2476 2477 2478 2482 2483 2484 2521 2522 2523 2530 2531 2532 2617 2618 2619 2626 2627 2628 2653 2654 2655 2662 2663 2664 2677 2678 2679 2686 2687 2688 2860 2861 2862 2866 2867 2868
370 371 372 1906 1907 1908 2476 2477 2478 2482 2483 2484 2521 2522 2523 2530 2531 2532 2617 2618 2619 2626 2627 2628 2653 2654 2655 2662 2663 2664 2677 2678 2679 2686 2687 2688 2860 2861 2862 2866 2867 2868
373 374 375 1909 1910 1911 2485 2486 2487 2491 2492 2493 2533 2534 2535 2542 2543 2544 2629 2630 2631 2638 2639 2640 2641 2642 2643 2650 2651 2652 2665 2666 2667 2674 2675 2676 2869 2870 2871 2875 2876 2877
373 374 375 1909 1910 1911 2485 2486 2487 2491 2492 2493 2533 2534 2535 2542 2543 2544 2629 2630 2631 2638 2639 2640 2641 2642 2643 2650 2651 2652 2665 2666 2667 2674 2675 2676 2869 2870 2871 2875 2876 2877
373 374 375 1909 1910 1911 2485 2486 2487 2491 2492 2493 2533 2534 2535 2542 2543 2544 2629 2630 2631 2638 2639 2640 2641 2642 2643 2650 2651 2652 2665 2666 2667 2674 2675 2676 2869 2870 2871 2875 2876 2877
376 377 378 1912 1913 1914 2488 2489 2490 2494 2495 2496 2536 2537 2538 2539 2540 2541 2632 2633 2634 2635 2636 2637 2644 2645 2646 2647 2648 2649 2668 2669 2670 2671 2672 2673 2872 2873 2874 2878 2879 2880
376 377 378 1912 1913 1914 2488 2489 2490 2494 2495 2496 2536 2537 2538 2539 2540 2541 2632 2633 2634 2635 2636 2637 2644 2645 2646 2647 2648 2649 2668 2669 2670 2671 2672 2673 2872 2873 2874 2878 2879 2880
376 377 378 1912 1913 1914 2488 2489 2490 2494 2495 2496 2536 2537 2538 2539 2540 2541 2632 2633 2634 2635 2636 2637 2644 2645 2646 2647 2648 2649 2668 2669 2670 2671 2672 2673 2872 2873 2874 2878 2879 2880
379 380 381 1915 1916 1917 2485 2486 2487 2491 2492 2493 2536 2537 2538 2539 2540 2541 2632 2633 2634 2635 2636 2637 2644 2645 2646 2647 2648 2649 2668 2669 2670 2671 2672 2673 2869 2870 2871 2875 2876 2877
379 380 381 1915 1916 1917 2485 2486 2487 2491 2492 2493 2536 2537 2538 2539 2540 2541 2632 2633 2634 2635 2636 2637 2644 2645 2646 2647 2648 2649 2668 2669 2670 2671 2672 2673 2869 2870 2871 2875 2876 2877
379 380 381 1915 1916 1917 2485 2486 2487 2491 2492 2493 2536 2537 2538 2539 2540 2541 2632 2633 2634 2635 2636 2637 2644 2645 2646 2647 2648 2649 2668 2669 2670 2671 2672 2673 2869 2870 2871 2875 2876 2877
382 383 384 1918 1919 1920 2488 2489 2490 2494 2495 2496 2533 2534 2535 2542 2543 2544 2629 2630 2631 2638 2639 2640 2641 2642 2643 2650 2651 2652 2665 2666 2667 2674 2675 2676 2872 2873 2874 2878 2879 2880
382 383 384 1918 1919 1920 2488 2489 2490 2494 2495 2496 2533 2534 2535 2542 2543 2544 2629 2630 2631 2638 2639 2640 2641 2642 2643 2650 2651 2652 2665 2666 2667 2674 2675 2676 2872 2873 2874 2878 2879 2880
382 383 384 1918 1919 1920 2488 2489 2490 2494 2495 2496 2533 2534 2535 2542 2543 2544 2629 2630 2631 2638 2639 2640 2641 2642 2643 2650 2651 2652 2665 2666 2667 2674 2675 2676 2872 2873 2874 2878 2879 2880
385 386 387 1921 1922 1923 2497 2498 2499 2503 2504 2505 2701 2702 2703 2710 2711 2712 2725 2726 2727 2734 2735 2736 2737 2738 2739 2746 2747 2748 2833 2834 2835 2842 2843 2844 2881 2882 2883 2887 2888 2889
385 386 387 1921 1922 1923 2497 2498 2499 2503 2504 2505 2701 2702 2703 2710 2711 2712 2725 2726 2727 2734 2735 2736 2737 2738 2739 2746 2747 2748 2833 2834 2835 2842 2843 2844 2881 2882 2883 2887 2888 2889
385 386 387 1921 1922 1923 2497 2498 2499 2503 2504 2505 2701 2702 2703 2710 2711 2712 2725 2726 2727 2734 2735 2736 2737 2738 2739 2746 2747 2748 2833 2834 2835 2842 2843 2844 2881 2882 2883 2887 2888 2889
388 389 390 1924 1925 1926 2500 2501 2502 2506 2507 2508 2704 2705 2706 2707 2708 2709 2728 2729 2730 2731 2732 2733 2740 2741 2742 2743 2744 2745 2836 2837 2838 2839 2840 2841 2884 2885 2886 2890 2891 2892
388 389 390 1924 1925 1926 2500 2501 2502 2506 2507 2508 2704 2705 2706 2707 2708 2709 2728 2729 2730 2731 2732 2733 2740 2741 2742 2743 2744 2745 2836 2837 2838 2839 2840 2841 2884 2885 2886 2890 2891 2892
388 389 390 1924 1925 1926 2500 2501 2502 2506 2507 2508 2704 2705 2706 2707 2708 2709 2728 2729 2730 2731 2732 2733 2740 2741 2742 2743 2744 2745 2836 2837 2838 2839 2840 2841 2884 2885 2886 2890 2891 2892
391 392 393 1927 1928 1929 2497 2498 2499 2503 2504 2505 2704 2705 2706 2707 2708 2709 2728 2729 2730 2731 2732 2733 2740 2741 2742 2743 2744 2745 2836 2837 2838 2839 2840 2841 2881 2882 2883 2887 2888 2889
391 392 393 1927 1928 1929 2497 2498 2499 2503 2504 2505 2704 2705 2706 2707 2708 2709 2728 2729 2730 2731 2732 2733 2740 2741 2742 2743 2744 2745 2836 2837 2838 2839 2840 2841 2881 2882 2883 2887 2888 2889
391 392 393 1927 1928 1929 2497 2498 2499 2503 2504 2505 2704 2705 2706 2707 2708 2709 2728 2729 2730 2731 2732 2733 2740 2741 2742 2743 2744 2745 2836 2837 2838 2839 2840 2841 2881 2882 2883 2887 2888 2889
394 395 396 1930 1931 1932 2500 2501 2502 2506 2507 2508 2701 2702 2703 2710 2711 2712 2725 2726 2727 2734 2735 2736 2737 2738 2739 2746 2747 2748 2833 2834 2835 2842 2843 2844 2884 2885 2886 2890 2891 2892
394 395 396 1930 1931 1932 2500 2501 2502 2506 2507 2508 2701 2702 2703 2710 2711 2712 2725 2726 2727 2734 2735 2736 2737 2738 2739 2746 2747 2748 2833 2834 2835 2842 2843 2844 2884 2885 2886 2890 2891 2892
394 395 396 1930 1931 1932 2500 2501 2502 2506 2507 2508 2701 2702 2703 2710 2711 2712 2725 2726 2727 2734 2735 2736 2737 2738 2739 2746 2747 2748 2833 2834 2835 2842 2843 2844 2884 2885 2886 2890 2891 2892
397 398 399 1933 1934 1935 2509 2510 2511 2515 2516 2517 2689 2690 2691 2698 2699 2700 2713 2714 2715 2722 2723 2724 2749 2750 2751 2758 2759 2760 2845 2846 2847 2854 2855 2856 2893 2894 2895 2899 2900 2901
397 398 399 1933 1934 1935 2509 2510 2511 2515 2516 2517 2689 2690 2691 2698 2699 2700 2713 2714 2715 2722 2723 2724 2749 2750 2751 2758 2759 2760 2845 2846 2847 2854 2855 2856 2893 2894 2895 2899 2900 2901
397 398 399 1933 1934 1935 2509 2510 2511 2515 2516 2517 2689 2690 2691 2698 2699 2700 2713 2714 2715 2722 2723 2724 2749 2750 2751 2758 2759 2760 2845 2846 2847 2854 2855 2856 2893 2894 2895 2899 2900 2901
400 401 402 1936 1937 1938 2512 2513 2514 2518 2519 2520 2692 2693 2694 2695 2696 2697 2716 2717 2718 2719 2720 2721 2752 2753 2754 2755 2756 2757 2848 2849 2850 2851 2852 2853 2896 2897 2898 2902 2903 2904
400 401 402 1936 1937 1938 2512 2513 2514 2518 2519 2520 2692 2693 2694 2695 2696 2697 2716 2717 2718 2719 2720 2721 2752 2753 2754 2755 2756 2757 2848 2849 2850 2851 2852 2853 2896 2897 2898 2902 2903 2904
400 401 402 1936 1937 1938 2512 2513 2514 2518 2519 2520 2692 2693 2694 2695 2696 2697 2716 2717 2718 2719 2720 2721 2752 2753 2754 2755 2756 2757 2848 2849 2850 2851 2852 2853 2896 2897 2898 2902 2903 2904
403 404 405 1939 1940 1941 2509 2510 2511 2515 2516 2517 2692 2693 2694 2695 2696 2697 2716 2717 2718 2719 2720 2721 2752 2753 2754 2755 2756 2757 2848 2849 2850 2851 2852 2853 2893 2894 2895 2899 2900 2901
403 404 405 1939 1940 1941 2509 2510 2511 2515 2516 2517 2692 2693 2694 2695 2696 2697 2716 2717 2718 2719 2720 2721 2752 2753 2754 2755 2756 2757 2848 2849 2850 2851 2852 2853 2893 2894 2895 2899 2900 2901
403 404 405 1939 1940 1941 2509 2510 2511 2515 2516 2517 2692 2693 2694 2695 2696 2697 2716 2717 2718 2719 2720 2721 2752 2753 2754 2755 2756 2757 2848 2849 2850 2851 2852 2853 2893 2894 2895 2899 2900 2901
406 407 408 1942 1943 1944 2512 2513 2514 2518 2519 2520 2689 2690 2691 2698 2699 2700 2713 2714 2715 2722 2723 2724 2749 2750 2751 2758 2759 2760 2845 2846 2847 2854 2855 2856 2896 2897 2898 2902 2903 2904
406 407 408 1942 1943 1944 2512 2513 2514 2518 2519 2520 2689 2690 2691 2698 2699 2700 2713 2714 2715 2722 2723 2724 2749 2750 2751 2758 2759 2760 2845 2846 2847 2854 2855 2856 2896 2897 2898 2902 2903 2904
406 407 408 1942 1943 1944 2512 2513 2514 2518 2519 2520 2689 2690 2691 2698 2699 2700 2713 2714 2715 2722 2723 2724 2749 2750 2751 2758 2759 2760 2845 2846 2847 2854 2855 2856 2896 2897 2898 2902 2903 2904
409 410 411 1945 1946 1947 2521 2522 2523 2527 2528 2529 2701 2702 2703 2710 2711 2712 2725 2726 2727 2734 2735 2736 2761 2762 2763 2770 2771 2772 2857 2858 2859 2866 2867 2868 2905 2906 2907 2911 2912 2913
409 410 411 1945 1946 1947 2521 2522 2523 2527 2528 2529 2701 2702 2703 2710 2711 2712 2725 2726 2727 2734 2735 2736 2761 2762 2763 2770 2771 2772 2857 2858 2859 2866 2867 2868 2905 2906 2907 2911 2912 2913
409 410 411 1945 1946 1947 2521 2522 2523 2527 2528 2529 2701 2702 2703 2710 2711 2712 2725 2726 2727 2734 2735 2736 2761 2762 2763 2770 2771 2772 2857 2858 2859 2866 2867 2868 2905 2906 2907 2911 2912 2913
412 413 414 1948 1949 1950 2524 2525 2526 2530 2531 2532 2704 2705 2706 2707 2708 2709 2728 2729 2730 2731 2732 2733 2764 2765 2766 2767 2768 2769 2860 2861 2862 2863 2864 2865 2908 2909 2910 2914 2915 2916
412 413 414 1948 1949 1950 2524 2525 2526 2530 2531 2532 2704 2705 2706 2707 2708 2709 2728 2729 2730 2731 2732 2733 2764 2765 2766 2767 2768 2769 2860 2861 2862 2863 2864 2865 2908 2909 2910 2914 2915 2916
412 413 414 1948 1949 1950 2524 2525 2526 2530 2531 2532 2704 2705 2706 2707 2708 2709 2728 2729 2730 2731 2732 2733 2764 2765 2766 2767 2768 2769 2860 2861 2862 2863 2864 2865 2908 2909 2910 2914 2915 2916
415 416 417 1951 1952 1953 2521 2522 2523 2527 2528 2529 2704 2705 2706 2707 2708 2709 2728 2729 2730 2731 2732 2733 2764 2765 2766 2767 2768 2769 2860 2861 2862 2863 2864 2865 2905 2906 2907 2911 2912 2913
415 416 417 1951 1952 1953 2521 2522 2523 2527 2528 2529 2704 2705 2706 2707 2708 2709 2728 2729 2730 2731 2732 2733 2764 2765 2766 2767 2768 2769 2860 2861 2862 2863 2864 2865 2905 2906 2907 2911 2912 2913
415 416 417 1951 1952 1953 2521 2522 2523 2527 2528 2529 2704 2705 2706 2707 2708 2709 2728 2729 2730 2731 2732 2733 2764 2765 2766 2767 2768 2769 2860 2861 2862 2863 2864 2865 2905 2906 2907 2911 2912 2913
418 419 420 1954 1955 1956 2524 2525 2526 2530 2531 2532 2701 2702 2703 2710 2711 2712 2725 2726 2727 2734 2735 2736 2761 2762 2763 2770 2771 2772 2857 2858 2859 2866 2867 2868 2908 2909 2910 2914 2915 2916
418 419 420 1954 1955 1956 2524 2525 2526 2530 2531 2532 2701 2702 2703 2710 2711 2712 2725 2726 2727 2734 2735 2736 2761 2762 2763 2770 2771 2772 2857 2858 2859 2866 2867 2868 2908 2909 2910 2914 2915 2916
418 419 420 1954 1955 1956 2524 2525 2526 2530 2531 2532 2701 2702 2703 2710 2711 2712 2725 2726 2727 2734 2735 2736 2761 2762 2763 2770 2771 2772 2857 2858 2859 2866 2867 2868 2908 2909 2910 2914 2915 2916
421 422 423 1957 1958 1959 2533 2534 2535 2539 2540 2541 2689 2690 2691 2698 2699 2700 2713 2714 2715 2722 2723 2724 2773 2774 2775 2782 2783 2784 2869 2870 2871 2878 2879 2880 2917 2918 2919 2923 2924 2925
421 422 423 1957 1958 1959 2533 2534 2535 2539 2540 2541 2689 2690 2691 2698 2699 2700 2713 2714 2715 2722 2723 2724 2773 2774 2775 2782 2783 2784 2869 2870 2871 2878 2879 2880 2917 2918 2919 2923 2924 2925
421 422 423 1957 1958 1959 2533 2534 2535 2539 2540 2541 2689 2690 2691 2698 2699 2700 2713 2714 2715 2722 2723 2724 2773 2774 2775 2782 2783 2784 2869 2870 2871 2878 2879 2880 2917 2918 2919 2923 2924 2925
424 425 426 1960 1961 1962 2536 2537 2538 2542 2543 2544 2692 2693 2694 2695 2696 2697 2716 2717 2718 2719 2720 2721 2776 2777 2778 2779 2780 2781 2872 2873 2874 2875 2876 2877 2920 2921 2922 2926 2927 2928
424 425 426 1960 1961 1962 2536 2537 2538 2542 2543 2544 2692 2693 2694 2695 2696 2697 2716 2717 2718 2719 2720 2721 2776 2777 2778 2779 2780 2781 2872 2873 2874 2875 2876 2877 2920 2921 2922 2926 2927 2928
424 425 426 1960 1961 1962 2536 2537 2538 2542 2543 2544 2692 2693 2694 2695 2696 2697 2716 2717 2718 2719 2720 2721 2776 2777 2778 2779 2780 2781 2872 2873 2874 2875 2876 2877 2920 2921 2922 2926 2927 2928
427 428 429 1963 1964 1965 2533 2534 2535 2539 2540 2541 2692 2693 2694 2695 2696 2697 2716 2717 2718 2719 2720 2721 2776 2777 2778 2779 2780 2781 2872 2873 2874 2875 2876 2877 2917 2918 2919 2923 2924 2925
427 428 429 1963 1964 1965 2533 2534 2535 2539 2540 2541 2692 2693 2694 2695 2696 2697 2716 2717 2718 2719 2720 2721 2776 2777 2778 2779 2780 2781 2872 2873 2874 2875 2876 2877 2917 2918 2919 2923 2924 2925
427 428 429 1963 1964 1965 2533 2534 2535 2539 2540 2541 2692 2693 2694 2695 2696 2697 2716 2717 2718 2719 2720 2721 2776 2777 2778 2779 2780 2781 2872 2873 2874 2875 2876 2877 2917 2918 2919 2923 2924 2925
430 431 432 1966 1967 1968 2536 2537 2538 2542 2543 2544 2689 2690 2691 2698 2699 2700 2713 2714 2715 2722 2723 2724 2773 2774 2775 2782 2783 2784 2869 2870 2871 2878 2879 2880 2920 2921 2922 2926 2927 2928
430 431 432 1966 1967 1968 2536 2537 2538 2542 2543 2544 2689 2690 2691 2698 2699 2700 2713 2714 2715 2722 2723 2724 2773 2774 2775 2782 2783 2784 2869 2870 2871 2878 2879 2880 2920 2921 2922 2926 2927 2928
430 431 432 1966 1967 1968 2536 2537 2538 2542 2543 2544 2689 2690 2691 2698 2699 2700 2713 2714 2715 2722 2723 2724 2773 2774 2775 2782 2783 2784 2869 2870 2871 2878 2879 2880 2920 2921 2922 2926 2927 2928
433 434 435 1969 1970 1971 2545 2546 2547 2551 2552 2553 2689 2690 2691 2698 2699 2700 2749 2750 2751 2758 2759 2760 2773 2774 2775 2782 2783 2784 2785 2786 2787 2794 2795 2796 2929 2930 2931 2935 2936 2937
433 434 435 1969 1970 1971 2545 2546 2547 2551 2552 2553 2689 2690 2691 2698 2699 2700 2749 2750 2751 2758 2759 2760 2773 2774 2775 2782 2783 2784 2785 2786 2787 2794 2795 2796 2929 2930 2931 2935 2936 2937
433 434 435 1969 1970 1971 2545 2546 2547 2551 2552 2553 2689 2690 2691 2698 2699 2700 2749 2750 2751 2758 2759 2760 2773 2774 2775 2782 2783 2784 2785 2786 2787 2794 2795 2796 2929 2930 2931 2935 2936 2937
436 437 438 1972 1973 1974 2548 2549 2550 2554 2555 2556 2692 2693 2694 2695 2696 2697 2752 2753 2754 2755 2756 2757 2776 2777 2778 2779 2780 2781 2788 2789 2790 2791 2792 2793 2932 2933 2934 2938 2939 2940
436 437 438 1972 1973 1974 2548 2549 2550 2554 2555 2556 2692 2693 2694 2695 2696 2697 2752 2753 2754 2755 2756 2757 2776 2777 2778 2779 2780 2781 2788 2789 2790 2791 2792 2793 2932 2933 2934 2938 2939 2940
436 437 438 1972 1973 1974 2548 2549 2550 2554 2555 2556 2692 2693 2694 2695 2696 2697 2752 2753 2754 2755 2756 2757 2776 2777 2778 2779 2780 2781 2788 2789 2790 2791 2792 2793 2932 2933 2934 2938 2939 2940
439 440 441 1975 1976 1977 2545 2546 2547 2551 2552 2553 2692 2693 2694 2695 2696 2697 2752 2753 2754 2755 2756 2757 2776 2777 2778 2779 2780 2781 2788 2789 2790 2791 2792 2793 2929 2930 2931 2935 2936 2937
439 440 441 1975 1976 1977 2545 2546 2547 2551 2552 2553 2692 2693 2694 2695 2696 2697 2752 2753 2754 2755 2756 2757 2776 2777 2778 2779 2780 2781 2788 2789 2790 2791 2792 2793 2929 2930 2931 2935 2936 2937
439 440 441 1975 1976 1977 2545 2546 2547 2551 2552 2553 2692 2693 2694 2695 2696 2697 2752 2753 2754 2755 2756 2757 2776 2777 2778 2779 2780 2781 2788 2789 2790 2791 2792 2793 2929 2930 2931 2935 2936 2937
442 443 444 1978 1979 1980 2548 2549 2550 2554 2555 2556 2689 2690 2691 2698 2699 2700 2749 2750 2751 2758 2759 2760 2773 2774 2775 2782 2783 2784 2785 2786 2787 2794 2795 2796 2932 2933 2934 2938 2939 2940
442 443 444 1978 1979 1980 2548 2549 2550 2554 2555 2556 2689 2690 2691 2698 2699 2700 2749 2750 2751 2758 2759 2760 2773 2774 2775 2782 2783 2784 2785 2786 2787 2794 2795 2796 2932 2933 2934 2938 2939 2940
442 443 444 1978 1979 1980 2548 2549 2550 2554 2555 2556 2689 2690 2691 2698 2699 2700 2749 2750 2751 2758 2759 2760 2773 2774 2775 2782 2783 2784 2785 2786 2787 2794 2795 2796 2932 2933 2934 2938 2939 2940
445 446 447 1981 1982 1983 2557 2558 2559 2563 2564 2565 2701 2702 2703 2710 2711 2712 2737 2738 2739 2746 2747 2748 2761 2762 2763 2770 2771 2772 2797 2798 2799 2806 2807 2808 2941 2942 2943 2947 2948 2949
445 446 447 1981 1982 1983 2557 2558 2559 2563 2564 2565 2701 2702 2703 2710 2711 2712 2737 2738 2739 2746 2747 2748 2761 2762 2763 2770 2771 2772 2797 2798 2799 2806 2807 2808 2941 2942 2943 2947 2948 2949
445 446 447 1981 1982 1983 2557 2558 2559 2563 2564 2565 2701 2702 2703 2710 2711 2712 2737 2738 2739 2746 2747 2748 2761 2762 2763 2770 2771 2772 2797 2798 2799 2806 2807 2808 2941 2942 2943 2947 2948 2949
448 449 450 1984 1985 1986 2560 2561 2562 2566 2567 2568 2704 2705 2706 2707 2708 2709 2740 2741 2742 2743 2744 2745 2764 2765 2766 2767 2768 2769 2800 2801 2802 2803 2804 2805 2944 2945 2946 2950 2951 2952
448 449 450 1984 1985 1986 2560 2561 2562 2566 2567 2568 2704 2705 2706 2707 2708 2709 2740 2741 2742 2743 2744 2745 2764 2765 2766 2767 2768 2769 2800 2801 2802 2803 2804 2805 2944 2945 2946 2950 2951 2952
448 449 450 1984 1985 1986 2560 2561 2562 2566 2567 2568 2704 2705 2706 2707 2708 2709 2740 2741 2742 2743 2744 2745 2764 2765 2766 2767 2768 2769 2800 2801 2802 2803 2804 2805 2944 2945 2946 2950 2951 2952
451 452 453 1987 1988 1989 2557 2558 2559 2563 2564 2565 2704 2705 2706 2707 2708 2709 2740 2741 2742 2743 2744 2745 2764 2765 2766 2767 2768 2769 2800 2801 2802 2803 2804 2805 2941 2942 2943 2947 2948 2949
451 452 453 1987 1988 1989 2557 2558 2559 2563 2564 2565 2704 2705 2706 2707 2708 2709 2740 2741 2742 2743 2744 2745 2764 2765 2766 2767 2768 2769 2800 2801 2802 2803 2804 2805 2941 2942 2943 2947 2948 2949
451 452 453 1987 1988 1989 2557 2558 2559 2563 2564 2565 2704 2705 2706 2707 2708 2709 2740 2741 2742 2743 2744 2745 2764 2765 2766 2767 2768 2769 2800 2801 2802 2803 2804 2805 2941 2942 2943 2947 2948 2949
454 455 456 1990 1991 1992 2560 2561 2562 2566 2567 2568 2701 2702 2703 2710 2711 2712 2737 2738 2739 2746 2747 2748 2761 2762 2763 2770 2771 2772 2797 2798 2799 2806 2807 2808 2944 2945 2946 2950 2951 2952
454 455 456 1990 1991 1992 2560 2561 2562 2566 2567 2568 2701 2702 2703 2710 2711 2712 2737 2738 2739 2746 2747 2748 2761 2762 2763 2770 2771 2772 2797 2798 2799 2806 2807 2808 2944 2945 2946 2950 2951 2952
454 455 456 1990 1991 1992 2560 2561 2562 2566 2567 2568 2701 2702 2703 2710 2711 2712 2737 2738 2739 2746 2747 2748 2761 2762 2763 2770 2771 2772 2797 2798 2799 2806 2807 2808 2944 2945 2946 2950 2951 2952
457 458 459 1993 1994 1995 2569 2570 2571 2575 2576 2577 2713 2714 2715 2722 2723 2724 2749 2750 2751 2758 2759 2760 2773 2774 2775 2782 2783 2784 2809 2810 2811 2818 2819 2820 2953 2954 2955 2959 2960 2961
457 458 459 1993 1994 1995 2569 2570 2571 2575 2576 2577 2713 2714 2715 2722 2723 2724 2749 2750 2751 2758 2759 2760 2773 2774 2775 2782 2783 2784 2809 2810 2811 2818 2819 2820 2953 2954 2955 2959 2960 2961
457 458 459 1993 1994 1995 2569 2570 2571 2575 2576 2577 2713 2714 2715 2722 2723 2724 2749 2750 2751 2758 2759 2760 2773 2774 2775 2782 2783 2784 2809 2810 2811 2818 2819 2820 2953 2954 2955 2959 2960 2961
460 461 462 1996 1997 1998 2572 2573 2574 2578 2579 2580 2716 2717 2718 2719 2720 2721 2752 2753 2754 2755 2756 2757 2776 2777 2778 2779 2780 2781 2812 2813 2814 2815 2816 2817 2956 2957 2958 2962 2963 2964
460 461 462 1996 1997 1998 2572 2573 2574 2578 2579 2580 2716 2717 2718 2719 2720 2721 2752 2753 2754 2755 2756 2757 2776 2777 2778 2779 2780 2781 2812 2813 2814 2815 2816 2817 2956 2957 2958 2962 2963 2964
460 461 462 1996 1997 1998 2572 2573 2574 2578 2579 2580 2716 2717 2718 2719 2720 2721 2752 2753 2754 2755 2756 2757 2776 2777 2778 2779 2780 2781 2812 2813 2814 2815 2816 2817 2956 2957 2958 2962 2963 2964
463 464 465 1999 2000 2001 2569 2570 2571 2575 2576 2577 2716 2717 2718 2719 2720 2721 2752 2753 2754 2755 2756 2757 2776 2777 2778 2779 2780 2781 2812 2813 2814 2815 2816 2817 2953 2954 2955 2959 2960 2961
463 464 465 1999 2000 2001 2569 2570 2571 2575 2576 2577 2716 2717 2718 2719 2720 2721 2752 2753 2754 2755 2756 2757 2776 2777 2778 2779 2780 2781 2812 2813 2814 2815 2816 2817 2953 2954 2955 2959 2960 2961
463 464 465 1999 2000 2001 2569 2570 2571 2575 2576 2577 2716 2717 2718 2719 2720 2721 2752 2753 2754 2755 2756 2757 2776 2777 2778 2779 2780 2781 2812 2813 2814 2815 2816 2817 2953 2954 2955 2959 2960 2961
466 467 468 2002 2003 2004 2572 2573 2574 2578 2579 2580 2713 2714 2715 2722 2723 2724 2749 2750 2751 2758 2759 2760 2773 2774 2775 2782 2783 2784 2809 2810 2811 2818 2819 2820 2956 2957 2958 2962 2963 2964
466 467 468 2002 2003 2004 2572 2573 2574 2578 2579 2580 2713 2714 2715 2722 2723 2724 2749 2750 2751 2758 2759 2760 2773 2774 2775 2782 2783 2784 2809 2810 2811 2818 2819 2820 2956 2957 2958 2962 2963 2964
466 467 468 2002 2003 2004 2572 2573 2574 2578 2579 2580 2713 2714 2715 2722 2723 2724 2749 2750 2751 2758 2759 2760 2773 2774 2775 2782 2783 2784 2809 2810 2811 2818 2819 2820 2956 2957 2958 2962 2963 2964
469 470 471 2005 2006 2007 2581 2582 2583 2587 2588 2589 2725 2726 2727 2734 2735 2736 2737 2738 2739 2746 2747 2748 2761 2762 2763 2770 2771 2772 2821 2822 2823 2830 2831 2832 2965 2966 2967 2971 2972 2973
469 470 471 2005 2006 2007 2581 2582 2583 2587 2588 2589 2725 2726 2727 2734 2735 2736 2737 2738 2739 2746 2747 2748 2761 2762 2763 2770 2771 2772 2821 2822 2823 2830 2831 2832 2965 2966 2967 2971 2972 2973
469 470 471 2005 2006 2007 2581 2582 2583 2587 2588 2589 2725 2726 2727 2734 2735 2736 2737 2738 2739 2746 2747 2748 2761 2762 2763 2770 2771 2772 2821 2822 2823 2830 2831 2832 2965 2966 2967 2971 2972 2973
472 473 474 2008 2009 2010 2584 2585 2586 2590 2591 2592 2728 2729 2730 2731 2732 2733 2740 2741 2742 2743 2744 2745 2764 2765 2766 2767 2768 2769 2824 2825 2826 2827 2828 2829 2968 2969 2970 2974 2975 2976
472 473 474 2008 2009 2010 2584 2585 2586 2590 2591 2592 2728 2729 2730 2731 2732 2733 2740 2741 2742 2743 2744 2745 2764 2765 2766 2767 2768 2769 2824 2825 2826 2827 2828 2829 2968 2969 2970 2974 2975 2976
472 473 474 2008 2009 2010 2584 2585 2586 2590 2591 2592 2728 2729 2730 2731 2732 2733 2740 2741 2742 2743 2744 2745 2764 2765 2766 2767 2768 2769 2824 2825 2826 2827 2828 2829 2968 2969 2970 2974 2975 2976
475 476 477 2011 2012 2013 2581 2582 2583 2587 2588 2589 2728 2729 2730 2731 2732 2733 2740 2741 2742 2743 2744 2745 2764 2765 2766 2767 2768 2769 2824 2825 2826 2827 2828 2829 2965 2966 2967 2971 2972 2973
475 476 477 2011 2012 2013 2581 2582 2583 2587 2588 2589 2728 2729 2730 2731 2732 2733 2740 2741 2742 2743 2744 2745 2764 2765 2766 2767 2768 2769 2824 2825 2826 2827 2828 2829 2965 2966 2967 2971 2972 2973
475 476 477 2011 2012 2013 2581 2582 2583 2587 2588 2589 2728 2729 2730 2731 2732 2733 2740 2741 2742 2743 2744 2745 2764 2765 2766 2767 2768 2769 2824 2825 2826 2827 2828 2829 2965 2966 2967 2971 2972 2973
478 479 480 2014 2015 2016 2584 2585 2586 2590 2591 2592 2725 2726 2727 2734 2735 2736 2737 2738 2739 2746 2747 2748 2761 2762 2763 2770 2771 2772 2821 2822 2823 2830 2831 2832 2968 2969 2970 2974 2975 2976
478 479 480 2014 2015 2016 2584 2585 2586 2590 2591 2592 2725 2726 2727 2734 2735 2736 2737 2738 2739 2746 2747 2748 2761 2762 2763 2770 2771 2772 2821 2822 2823 2830 2831 2832 2968 2969 2970 2974 2975 2976
478 479 480 2014 2015 2016 2584 2585 2586 2590 2591 2592 2725 2726 2727 2734 2735 2736 2737 2738 2739 2746 2747 2748 2761 2762 2763 2770 2771 2772 2821 2822 2823 2830 2831 2832 2968 2969 2970 2974 2975 2976
481 482 483 2017 2018 2019 2593 2594 2595 2599 2600 2601 2737 2738 2739 2746 2747 2748 2797 2798 2799 2806 2807 2808 2821 2822 2823 2830 2831 2832 2833 2834 2835 2842 2843 2844 2977 2978 2979 2983 2984 2985
481 482 483 2017 2018 2019 2593 2594 2595 2599 2600 2601 2737 2738 2739 2746 2747 2748 2797 2798 2799 2806 2807 2808 2821 2822 2823 2830 2831 2832 2833 2834 2835 2842 2843 2844 2977 2978 2979 2983 2984 2985
481 482 483 2017 2018 2019 2593 2594 2595 2599 2600 2601 2737 2738 2739 2746 2747 2748 2797 2798 2799 2806 2807 2808 2821 2822 2823 2830 2831 2832 2833 2834 2835 2842 2843 2844 2977 2978 2979 2983 2984 2985
484 485 486 2020 2021 2022 2596 2597 2598 2602 2603 2604 2740 2741 2742 2743 2744 2745 2800 2801 2802 2803 2804 2805 2824 2825 2826 2827 2828 2829 2836 2837 2838 2839 2840 2841 2980 2981 2982 2986 2987 2988
484 485 486 2020 2021 2022 2596 2597 2598 2602 2603 2604 2740 2741 2742 2743 2744 2745 2800 2801 2802 2803 2804 2805 2824 2825 2826 2827 2828 2829 2836 2837 2838 2839 2840 2841 2980 2981 2982 2986 2987 2988
484 485 486 2020 2021 2022 2596 2597 2598 2602 2603 2604 2740 2741 2742 2743 2744 2745 2800 2801 2802 2803 2804 2805 2824 2825 2826 2827 2828 2829 2836 2837 2838 2839 2840 2841 2980 2981 2982 2986 2987 2988
487 488 489 2023 2024 2025 2593 2594 2595 2599 2600 2601 2740 2741 2742 2743 2744 2745 2800 2801 2802 2803 2804 2805 2824 2825 2826 2827 2828 2829 2836 2837 2838 2839 2840 2841 2977 2978 2979 2983 2984 2985
487 488 489 2023 2024 2025 2593 2594 2595 2599 2600 2601 2740 2741 2742 2743 2744 2745 2800 2801 2802 2803 2804 2805 2824 2825 2826 2827 2828 2829 2836 2837 2838 2839 2840 2841 2977 2978 2979 2983 2984 2985
487 488 489 2023 2024 2025 2593 2594 2595 2599 2600 2601 2740 2741 2742 2743 2744 2745 2800 2801 2802 2803 2804 2805 2824 2825 2826 2827 2828 2829 2836 2837 2838 2839 2840 2841 2977 2978 2979 2983 2984 2985
490 491 492 2026 2027 2028 2596 2597 2598 2602 2603 2604 2737 2738 2739 2746 2747 2748 2797 2798 2799 2806 2807 2808 2821 2822 2823 2830 2831 2832 2833 2834 2835 2842 2843 2844 2980 2981 2982 2986 2987 2988
490 491 492 2026 2027 2028 2596 2597 2598 2602 2603 2604 2737 2738 2739 2746 2747 2748 2797 2798 2799 2806 2807 2808 2821 2822 2823 2830 2831 2832 2833 2834 2835 2842 2843 2844 2980 2981 2982 2986 2987 2988
490 491 492 2026 2027 2028 2596 2597 2598 2602 2603 2604 2737 2738 2739 2746 2747 2748 2797 2798 2799 2806 2807 2808 2821 2822 2823 2830 2831 2832 2833 2834 2835 2842 2843 2844 2980 2981 2982 2986 2987 2988
493 494 495 2029 2030 2031 2605 2606 2607 2611 2612 2613 2749 2750 2751 2758 2759 2760 2785 2786 2787 2794 2795 2796 2809 2810 2811 2818 2819 2820 2845 2846 2847 2854 2855 2856 2989 2990 2991 2995 2996 2997
493 494 495 2029 2030 2031 2605 2606 2607 2611 2612 2613 2749 2750 2751 2758 2759 2760 2785 2786 2787 2794 2795 2796 2809 2810 2811 2818 2819 2820 2845 2846 2847 2854 2855 2856 2989 2990 2991 2995 2996 2997
493 494 495 2029 2030 2031 2605 2606 2607 2611 2612 2613 2749 2750 2751 2758 2759 2760 2785 2786 2787 2794 2795 2796 2809 2810 2811 2818 2819 2820 2845 2846 2847 2854 2855 2856 2989 2990 2991 2995 2996 2997
496 497 498 2032 2033 2034 2608 2609 2610 2614 2615 2616 2752 2753 2754 2755 2756 2757 2788 2789 2790 2791 2792 2793 2812 2813 2814 2815 2816 2817 2848 2849 2850 2851 2852 2853 2992 2993 2994 2998 2999 3000
496 497 498 2032 2033 2034 2608 2609 2610 2614 2615 2616 2752 2753 2754 2755 2756 2757 2788 2789 2790 2791 2792 2793 2812 2813 2814 2815 2816 2817 2848 2849 2850 2851 2852 2853 2992 2993 2994 2998 2999 3000
496 497 498 2032 2033 2034 2608 2609 2610 2614 2615 2616 2752 2753 2754 2755 2756 2757 2788 2789 2790 2791 2792 2793 2812 2813 2814 2815 2816 2817 2848 2849 2850 2851 2852 2853 2992 2993 2994 2998 2999 3000
499 500 501 2035 2036 2037 2605 2606 2607 2611 2612 2613 2752 2753 2754 2755 2756 2757 2788 2789 2790 2791 2792 2793 2812 2813 2814 2815 2816 2817 2848 2849 2850 2851 2852 2853 2989 2990 2991 2995 2996 2997
499 500 501 2035 2036 2037 2605 2606 2607 2611 2612 2613 2752 2753 2754 2755 2756 2757 2788 2789 2790 2791 2792 2793 2812 2813 2814 2815 2816 2817 2848 2849 2850 2851 2852 2853 2989 2990 2991 2995 2996 2997
499 500 501 2035 2036 2037 2605 2606 2607 2611 2612 2613 2752 2753 2754 2755 2756 2757 2788 2789 2790 2791 2792 2793 2812 2813 2814 2815 2816 2817 2848 2849 2850 2851 2852 2853 2989 2990 2991 2995 2996 2997
502 503 504 2038 2039 2040 2608 2609 2610 2614 2615 2616 2749 2750 2751 2758 2759 2760 2785 2786 2787 2794 2795 2796 2809 2810 2811 2818 2819 2820 2845 2846 2847 2854 2855 2856 2992 2993 2994 2998 2999 3000
502 503 504 2038 2039 2040 2608 2609 2610 2614 2615 2616 2749 2750 2751 2758 2759 2760 2785 2786 2787 2794 2795 2796 2809 2810 2811 2818 2819 2820 2845 2846 2847 2854 2855 2856 2992 2993 2994 2998 2999 3000
502 503 504 2038 2039 2040 2608 2609 2610 2614 2615 2616 2749 2750 2751 2758 2759 2760 2785 2786 2787 2794 2795 2796 2809 2810 2811 2818 2819 2820 2845 2846 2847 2854 2855 2856 2992 2993 2994 2998 2999 3000
505 506 507 2041 2042 2043 2617 2618 2619 2623 2624 2625 2761 2762 2763 2770 2771 2772 2797 2798 2799 2806 2807 2808 2821 2822 2823 2830 2831 2832 2857 2858 2859 2866 2867 2868 3001 3002 3003 3007 3008 3009
505 506 507 2041 2042 2043 2617 2618 2619 2623 2624 2625 2761 2762 2763 2770 2771 2772 2797 2798 2799 2806 2807 2808 2821 2822 2823 2830 2831 2832 2857 2858 2859 2866 2867 2868 3001 3002 3003 3007 3008 3009
505 506 507 2041 2042 2043 2617 2618 2619 2623 2624 2625 2761 2762 2763 2770 2771 2772 2797 2798 2799 2806 2807 2808 2821 2822 2823 2830 2831 2832 2857 2858 2859 2866 2867 2868 3001 3002 3003 3007 3008 3009
508 509 510 2044 2045 2046 2620 2621 2622 2626 2627 2628 2764 2765 2766 2767 2768 2769 2800 2801 2802 2803 2804 2805 2824 2825 2826 2827 2828 2829 2860 2861 2862 2863 2864 2865 3004 3005 3006 3010 3011 3012
508 509 510 2044 2045 2046 2620 2621 2622 2626 2627 2628 2764 2765 2766 2767 2768 2769 2800 2801 2802 2803 2804 2805 2824 2825 2826 2827 2828 2829 2860 2861 2862 2863 2864 2865 3004 3005 3006 3010 3011 3012
508 509 510 2044 2045 2046 2620 2621 2622 2626 2627 2628 2764 2765 2766 2767 2768 2769 2800 2801 2802 2803 2804 2805 2824 2825 2826 2827 2828 2829 2860 2861 2862 2863 2864 2865 3004 3005 3006 3010 3011 3012
511 512 513 2047 2048 2049 2617 2618 2619 2623 2624 2625 2764 2765 2766 2767 2768 2769 2800 2801 2802 2803 2804 2805 2824 2825 2826 2827 2828 2829 2860 2861 2862 2863 2864 2865 3001 3002 3003 3007 3008 3009
511 512 513 2047 2048 2049 2617 2618 2619 2623 2624 2625 2764 2765 2766 2767 2768 2769 2800 2801 2802 2803 2804 2805 2824 2825 2826 2827 2828 2829 2860 2861 2862 2863 2864 2865 3001 3002 3003 3007 3008 3009
511 512 513 2047 2048 2049 2617 2618 2619 2623 2624 2625 2764 2765 2766 2767 2768 2769 2800 2801 2802 2803 2804 2805 2824 2825 2826 2827 2828 2829 2860 2861 2862 2863 2864 2865 3001 3002 3003 3007 3008 3009
514 515 516 2050 2051 2052 2620 2621 2622 2626 2627 2628 2761 2762 2763 2770 2771 2772 2797 2798 2799 2806 2807 2808 2821 2822 2823 2830 2831 2832 2857 2858 2859 2866 2867 2868 3004 3005 3006 3010 3011 3012
514 515 516 2050 2051 2052 2620 2621 2622 2626 2627 2628 2761 2762 2763 2770 2771 2772 2797 2798 2799 2806 2807 2808 2821 2822 2823 2830 2831 2832 2857 2858 2859 2866 2867 2868 3004 3005 3006 3010 3011 3012
514 515 516 2050 2051 2052 2620 2621 2622 2626 2627 2628 2761 2762 2763 2770 2771 2772 2797 2798 2799 2806 2807 2808 2821 2822 2823 2830 2831 2832 2857 2858 2859 2866 2867 2868 3004 3005 3006 3010 3011 3012
517 518 519 2053 2054 2055 2629 2630 2631 2635 2636 2637 2773 2774 2775 2782 2783 2784 2785 2786 2787 2794 2795 2796 2809 2810 2811 2818 2819 2820 2869 2870 2871 2878 2879 2880 3013 3014 3015 3019 3020 3021
517 518 519 2053 2054 2055 2629 2630 2631 2635 2636 2637 2773 2774 2775 2782 2783 2784 2785 2786 2787 2794 2795 2796 2809 2810 2811 2818 2819 2820 2869 2870 2871 2878 2879 2880 3013 3014 3015 3019 3020 3021
517 518 519 2053 2054 2055 2629 2630 2631 2635 2636 2637 2773 2774 2775 2782 2783 2784 2785 2786 2787 2794 2795 2796 2809 2810 2811 2818 2819 2820 2869 2870 2871 2878 2879 2880 3013 3014 3015 3019 3020 3021
520 521 522 2056 2057 2058 2632 2633 2634 2638 2639 2640 2776 2777 2778 2779 2780 2781 2788 2789 2790 2791 2792 2793 2812 2813 2814 2815 2816 2817 2872 2873 2874 2875 2876 2877 3016 3017 3018 3022 3023 3024
520 521 522 2056 2057 2058 2632 2633 2634 2638 2639 2640 2776 2777 2778 2779 2780 2781 2788 2789 2790 2791 2792 2793 2812 2813 2814 2815 2816 2817 2872 2873 2874 2875 2876 2877 3016 3017 3018 3022 3023 3024
520 521 522 2056 2057 2058 2632 2633 2634 2638 2639 2640 2776 2777 2778 2779 2780 2781 2788 2789 2790 2791 2792 2793 2812 2813 2814 2815 2816 2817 2872 2873 2874 2875 2876 2877 3016 3017 3018 3022 3023 3024
523 524 525 2059 2060 2061 2629 2630 2631 2635 2636 2637 2776 2777 2778 2779 2780 2781 2788 2789 2790 2791 2792 2793 2812 2813 2814 2815 2816 2817 2872 2873 2874 2875 2876 2877 3013 3014 3015 3019 3020 3021
523 524 525 2059 2060 2061 2629 2630 2631 2635 2636 2637 2776 2777 2778 2779 2780 2781 2788 2789 2790 2791 2792 2793 2812 2813 2814 2815 2816 2817 2872 2873 2874 2875 2876 2877 3013 3014 3015 3019 3020 3021
523 524 525 2059 2060 2061 2629 2630 2631 2635 2636 2637 2776 2777 2778 2779 2780 2781 2788 2789 2790 2791 2792 2793 2812 2813 2814 2815 2816 2817 2872 2873 2874 2875 2876 2877 3013 3014 3015 3019 3020 3021
526 527 528 2062 2063 2064 2632 2633 2634 2638 2639 2640 2773 2774 2775 2782 2783 2784 2785 2786 2787 2794 2795 2796 2809 2810 2811 2818 2819 2820 2869 2870 2871 2878 2879 2880 3016 3017 3018 3022 3023 3024
526 527 528 2062 2063 2064 2632 2633 2634 2638 2639 2640 2773 2774 2775 2782 2783 2784 2785 2786 2787 2794 2795 2796 2809 2810 2811 2818 2819 2820 2869 2870 2871 2878 2879 2880 3016 3017 3018 3022 3023 3024
526 527 528 2062 2063 2064 2632 2633 2634 2638 2639 2640 2773 2774 2775 2782 2783 2784 2785 2786 2787 2794 2795 2796 2809 2810 2811 2818 2819 2820 2869 2870 2871 2878 2879 2880 3016 3017 3018 3022 3023 3024
529 530 531 2065 2066 2067 2641 2642 2643 2647 2648 2649 2689 2690 2691 2698 2699 2700 2785 2786 2787 2794 2795 2796 2845 2846 2847 2854 2855 2856 2869 2870 2871 2878 2879 2880 3025 3026 3027 3031 3032 3033
529 530 531 2065 2066 2067 2641 2642 2643 2647 2648 2649 2689 2690 2691 2698 2699 2700 2785 2786 2787 2794 2795 2796 2845 2846 2847 2854 2855 2856 2869 2870 2871 2878 2879 2880 3025 3026 3027 3031 3032 3033
529 530 531 2065 2066 2067 2641 2642 2643 2647 2648 2649 2689 2690 2691 2698 2699 2700 2785 2786 2787 2794 2795 2796 2845 2846 2847 2854 2855 2856 2869 2870 2871 2878 2879 2880 3025 3026 3027 3031 3032 3033
532 533 534 2068 2069 2070 2644 2645 2646 2650 2651 2652 2692 2693 2694 2695 2696 2697 2788 2789 2790 2791 2792 2793 2848 2849 2850 2851 2852 2853 2872 2873 2874 2875 2876 2877 3028 3029 3030 3034 3035 3036
532 533 534 2068 2069 2070 2644 2645 2646 2650 2651 2652 2692 2693 2694 2695 2696 2697 2788 2789 2790 2791 2792 2793 2848 2849 2850 2851 2852 2853 2872 2873 2874 2875 2876 2877 3028 3029 3030 3034 3035 3036
532 533 534 2068 2069 2070 2644 2645 2646 2650 2651 2652 2692 2693 2694 2695 2696 2697 2788 2789 2790 2791 2792 2793 2848 2849 2850 2851 2852 2853 2872 2873 2874 2875 2876 2877 3028 3029 3030 3034 3035 3036
535 536 537 2071 2072 2073 2641 2642 2643 2647 2648 2649 2692 2693 2694 2695 2696 2697 2788 2789 2790 2791 2792 2793 2848 2849 2850 2851 2852 2853 2872 2873 2874 2875 2876 2877 3025 3026 3027 3031 3032 3033
535 536 537 2071 2072 2073 2641 2642 2643 2647 2648 2649 2692 2693 2694 2695 2696 2697 2788 2789 2790 2791 2792 2793 2848 2849 2850 2851 2852 2853 2872 2873 2874 2875 2876 2877 3025 3026 3027 3031 3032 3033
535 536 537 2071 2072 2073 2641 2642 2643 2647 2648 2649 2692 2693 2694 2695 2696 2697 2788 2789 2790 2791 2792 2793 2848 2849 2850 2851 2852 2853 2872 2873 2874 2875 2876 2877 3025 3026 3027 3031 3032 3033
538 539 540 2074 2075 2076 2644 2645 2646 2650 2651 2652 2689 2690 2691 2698 2699 2700 2785 2786 2787 2794 2795 2796 2845 2846 2847 2854 2855 2856 2869 2870 2871 2878 2879 2880 3028 3029 3030 3034 3035 3036
538 539 540 2074 2075 2076 2644 2645 2646 2650 2651 2652 2689 2690 2691 2698 2699 2700 2785 2786 2787 2794 2795 2796 2845 2846 2847 2854 2855 2856 2869 2870 2871 2878 2879 2880 3028 3029 3030 3034 3035 3036
538 539 540 2074 2075 2076 2644 2645 2646 2650 2651 2652 2689 2690 2691 2698 2699 2700 2785 2786 2787 2794 2795 2796 2845 2846 2847 2854 2855 2856 2869 2870 2871 2878 2879 2880 3028 3029 3030 3034 3035 3036
541 542 543 2077 2078 2079 2653 2654 2655 2659 2660 2661 2701 2702 2703 2710 2711 2712 2797 2798 2799 2806 2807 2808 2833 2834 2835 2842 2843 2844 2857 2858 2859 2866 2867 2868 3037 3038 3039 3043 3044 3045
541 542 543 2077 2078 2079 2653 2654 2655 2659 2660 2661 2701 2702 2703 2710 2711 2712 2797 2798 2799 2806 2807 2808 2833 2834 2835 2842 2843 2844 2857 2858 2859 2866 2867 2868 3037 3038 3039 3043 3044 3045
541 542 543 2077 2078 2079 2653 2654 2655 2659 2660 2661 2701 2702 2703 2710 2711 2712 2797 2798 2799 2806 2807 2808 2833 2834 2835 2842 2843 2844 2857 2858 2859 2866 2867 2868 3037 3038 3039 3043 3044 3045
544 545 546 2080 2081 2082 2656 2657 2658 2662 2663 2664 2704 2705 2706 2707 2708 2709 2800 2801 2802 2803 2804 2805 2836 2837 2838 2839 2840 2841 2860 2861 2862 2863 2864 2865 3040 3041 3042 3046 3047 3048
544 545 546 2080 2081 2082 2656 2657 2658 2662 2663 2664 2704 2705 2706 2707 2708 2709 2800 2801 2802 2803 2804 2805 2836 2837 2838 2839 2840 2841 2860 2861 2862 2863 2864 2865 3040 3041 3042 3046 3047 3048
544 545 546 2080 2081 2082 2656 2657 2658 2662 2663 2664 2704 2705 2706 2707 2708 2709 2800 2801 2802 2803 2804 2805 2836 2837 2838 2839 2840 2841 2860 2861 2862 2863 2864 2865 3040 3041 3042 3046 3047 3048
547 548 549 2083 2084 2085 2653 2654 2655 2659 2660 2661 2704 2705 2706 2707 2708 2709 2800 2801 2802 2803 2804 2805 2836 2837 2838 2839 2840 2841 2860 2861 2862 2863 2864 2865 3037 3038 3039 3043 3044 3045
547 548 549 2083 2084 2085 2653 2654 2655 2659 2660 2661 2704 2705 2706 2707 2708 2709 2800 2801 2802 2803 2804 2805 2836 2837 2838 2839 2840 2841 2860 2861 2862 2863 2864 2865 3037 3038 3039 3043 3044 3045
547 548 549 2083 2084 2085 2653 2654 2655 2659 2660 2661 2704 2705 2706 2707 2708 2709 2800 2801 2802 2803 2804 2805 2836 2837 2838 2839 2840 2841 2860 2861 2862 2863 2864 2865 3037 3038 3039 3043 3044 3045
550 551 552 2086 2087 2088 2656 2657 2658 2662 2663 2664 2701 2702 2703 2710 2711 2712 2797 2798 2799 2806 2807 2808 2833 2834 2835 2842 2843 2844 2857 2858 2859 2866 2867 2868 3040 3041 3042 3046 3047 3048
550 551 552 2086 2087 2088 2656 2657 2658 2662 2663 2664 2701 2702 2703 2710 2711 2712 2797 2798 2799 2806 2807 2808 2833 2834 2835 2842 2843 2844 2857 2858 2859 2866 2867 2868 3040 3041 3042 3046 3047 3048
550 551 552 2086 2087 2088 2656 2657 2658 2662 2663 2664 2701 2702 2703 2710 2711 2712 2797 2798 2799 2806 2807 2808 2833 2834 2835 2842 2843 2844 2857 2858 2859 2866 2867 2868 3040 3041 3042 3046 3047 3048
553 554 555 2089 2090 2091 2665 2666 2667 2671 2672 2673 2713 2714 2715 2722 2723 2724 2809 2810 2811 2818 2819 2820 2845 2846 2847 2854 2855 2856 2869 2870 2871 2878 2879 2880 3049 3050 3051 3055 3056 3057
553 554 555 2089 2090 2091 2665 2666 2667 2671 2672 2673 2713 2714 2715 2722 2723 2724 2809 2810 2811 2818 2819 2820 2845 2846 2847 2854 2855 2856 2869 2870 2871 2878 2879 2880 3049 3050 3051 3055 3056 3057
553 554 555 2089 2090 2091 2665 2666 2667 2671 2672 2673 2713 2714 2715 2722 2723 2724 2809 2810 2811 2818 2819 2820 2845 2846 2847 2854 2855 2856 2869 2870 2871 2878 2879 2880 3049 3050 3051 3055 3056 3057
556 557 558 2092 2093 2094 2668 2669 2670 2674 2675 2676 2716 2717 2718 2719 2720 2721 2812 2813 2814 2815 2816 2817 2848 2849 2850 2851 2852 2853 2872 2873 2874 2875 2876 2877 3052 3053 3054 3058 3059 3060
556 557 558 2092 2093 2094 2668 2669 2670 2674 2675 2676 2716 2717 2718 2719 2720 2721 2812 2813 2814 2815 2816 2817 2848 2849 2850 2851 2852 2853 2872 2873 2874 2875 2876 2877 3052 3053 3054 3058 3059 3060
556 557 558 2092 2093 2094 2668 2669 2670 2674 2675 2676 2716 2717 2718 2719 2720 2721 2812 2813 2814 2815 2816 2817 2848 2849 2850 2851 2852 2853 2872 2873 2874 2875 2876 2877 3052 3053 3054 3058 3059 3060
559 560 561 2095 2096 2097 2665 2666 2667 2671 2672 2673 2716 2717 2718 2719 2720 2721 2812 2813 2814 2815 2816 2817 2848 2849 2850 2851 2852 2853 2872 2873 2874 2875 2876 2877 3049 3050 3051 3055 3056 3057
559 560 561 2095 2096 2097 2665 2666 2667 2671 2672 2673 2716 2717 2718 2719 2720 2721 2812 2813 2814 2815 2816 2817 2848 2849 2850 2851 2852 2853 2872 2873 2874 2875 2876 2877 3049 3050 3051 3055 3056 3057
559 560 561 2095 2096 2097 2665 2666 2667 2671 2672 2673 2716 2717 2718 2719 2720 2721 2812 2813 2814 2815 2816 2817 2848 2849 2850 2851 2852 2853 2872 2873 2874 2875 2876 2877 3049 3050 3051 3055 3056 3057
562 563 564 2098 2099 2100 2668 2669 2670 2674 2675 2676 2713 2714 2715 2722 2723 2724 2809 2810 2811 2818 2819 2820 2845 2846 2847 2854 2855 2856 2869 2870 2871 2878 2879 2880 3052 3053 3054 3058 3059 3060
562 563 564 2098 2099 2100 2668 2669 2670 2674 2675 2676 2713 2714 2715 2722 2723 2724 2809 2810 2811 2818 2819 2820 2845 2846 2847 2854 2855 2856 2869 2870 2871 2878 2879 2880 3052 3053 3054 3058 3059 3060
562 563 564 2098 2099 2100 2668 2669 2670 2674 2675 2676 2713 2714 2715 2722 2723 2724 2809 2810 2811 2818 2819 2820 2845 2846 2847 2854 2855 2856 2869 2870 2871 2878 2879 2880 3052 3053 3054 3058 3059 3060
565 566 567 2101 2102 2103 2677 2678 2679 2683 2684 2685 2725 2726 2727 2734 2735 2736 2821 2822 2823 2830 2831 2832 2833 2834 2835 2842 2843 2844 2857 2858 2859 2866 2867 2868 3061 3062 3063 3067 3068 3069
565 566 567 2101 2102 2103 2677 2678 2679 2683 2684 2685 2725 2726 2727 2734 2735 2736 2821 2822 2823 2830 2831 2832 2833 2834 2835 2842 2843 2844 2857 2858 2859 2866 2867 2868 3061 3062 3063 3067 3068 3069
565 566 567 2101 2102 2103 2677 2678 2679 2683 2684 2685 2725 2726 2727 2734 2735 2736 2821 2822 2823 2830 2831 2832 2833 2834 2835 2842 2843 2844 2857 2858 2859 2866 2867 2868 3061 3062 3063 3067 3068 3069
568 569 570 2104 2105 2106 2680 2681 2682 2686 2687 2688 2728 2729 2730 2731 2732 2733 2824 2825 2826 2827 2828 2829 2836 2837 2838 2839 2840 2841 2860 2861 2862 2863 2864 2865 3064 3065 3066 3070 3071 3072
568 569 570 2104 2105 2106 2680 2681 2682 2686 2687 2688 2728 2729 2730 2731 2732 2733 2824 2825 2826 2827 2828 2829 2836 2837 2838 2839 2840 2841 2860 2861 2862 2863 2864 2865 3064 3065 3066 3070 3071 3072
568 569 570 2104 2105 2106 2680 2681 2682 2686 2687 2688 2728 2729 2730 2731 2732 2733 2824 2825 2826 2827 2828 2829 2836 2837 2838 2839 2840 2841 2860 2861 2862 2863 2864 2865 3064 3065 3066 3070 3071 3072
571 572 573 2107 2108 2109 2677 2678 2679 2683 2684 2685 2728 2729 2730 2731 2732 2733 2824 2825 2826 2827 2828 2829 2836 2837 2838 2839 2840 2841 2860 2861 2862 2863 2864 2865 3061 3062 3063 3067 3068 3069
571 572 573 2107 2108 2109 2677 2678 2679 2683 2684 2685 2728 2729 2730 2731 2732 2733 2824 2825 2826 2827 2828 2829 2836 2837 2838 2839 2840 2841 2860 2861 2862 2863 2864 2865 3061 3062 3063 3067 3068 3069
571 572 573 2107 2108 2109 2677 2678 2679 2683 2684 2685 2728 2729 2730 2731 2732 2733 2824 2825 2826 2827 2828 2829 2836 2837 2838 2839 2840 2841 2860 2861 2862 2863 2864 2865 3061 3062 3063 3067 3068 3069
574 575 576 2110 2111 2112 2680 2681 2682 2686 2687 2688 2725 2726 2727 2734 2735 2736 2821 2822 2823 2830 2831 2832 2833 2834 2835 2842 2843 2844 2857 2858 2859 2866 2867 2868 3064 3065 3066 3070 3071 3072
574 575 576 2110 2111 2112 2680 2681 2682 2686 2687 2688 2725 2726 2727 2734 2735 2736 2821 2822 2823 2830 2831 2832 2833 2834 2835 2842 2843 2844 2857 2858 2859 2866 2867 2868 3064 3065 3066 3070 3071 3072
574 575 576 2110 2111 2112 2680 2681 2682 2686 2687 2688 2725 2726 2727 2734 2735 2736 2821 2822 2823 2830 2831 2832 2833 2834 2835 2842 2843 2844 2857 2858 2859 2866 2867 2868 3064 3065 3066 3070 3071 3072
577 578 579 2113 2114 2115 2305 2306 2307 2311 2312 2313 2689 2690 2691 2695 2696 2697 2893 2894 2895 2902 2903 2904 2917 2918 2919 2926 2927 2928 2929 2930 2931 2938 2939 2940 3025 3026 3027 3034 3035 3036
577 578 579 2113 2114 2115 2305 2306 2307 2311 2312 2313 2689 2690 2691 2695 2696 2697 2893 2894 2895 2902 2903 2904 2917 2918 2919 2926 2927 2928 2929 2930 2931 2938 2939 2940 3025 3026 3027 3034 3035 3036
577 578 579 2113 2114 2115 2305 2306 2307 2311 2312 2313 2689 2690 2691 2695 2696 2697 2893 2894 2895 2902 2903 2904 2917 2918 2919 2926 2927 2928 2929 2930 2931 2938 2939 2940 3025 3026 3027 3034 3035 3036
580 581 582 2116 2117 2118 2308 2309 2310 2314 2315 2316 2692 2693 2694 2698 2699 2700 2896 2897 2898 2899 2900 2901 2920 2921 2922 2923 2924 2925 2932 2933 2934 2935 2936 2937 3028 3029 3030 3031 3032 3033
580 581 582 2116 2117 2118 2308 2309 2310 2314 2315 2316 2692 2693 2694 2698 2699 2700 2896 2897 2898 2899 2900 2901 2920 2921 2922 2923 2924 2925 2932 2933 2934 2935 2936 2937 3028 3029 3030 3031 3032 3033
580 581 582 2116 2117 2118 2308 2309 2310 2314 2315 2316 2692 2693 2694 2698 2699 2700 2896 2897 2898 2899 2900 2901 2920 2921 2922 2923 2924 2925 2932 2933 2934 2935 2936 2937 3028 3029 3030 3031 3032 3033
583 584 585 2119 2120 2121 2305 2306 2307 2311 2312 2313 2689 2690 2691 2695 2696 2697 2896 2897 2898 2899 2900 2901 2920 2921 2922 2923 2924 2925 2932 2933 2934 2935 2936 2937 3028 3029 3030 3031 3032 3033
583 584 585 2119 2120 2121 2305 2306 2307 2311 2312 2313 2689 2690 2691 2695 2696 2697 2896 2897 2898 2899 2900 2901 2920 2921 2922 2923 2924 2925 2932 2933 2934 2935 2936 2937 3028 3029 3030 3031 3032 3033
583 584 585 2119 2120 2121 2305 2306 2307 2311 2312 2313 2689 2690 2691 2695 2696 2697 2896 2897 2898 2899 2900 2901 2920 2921 2922 2923 2924 2925 2932 2933 2934 2935 2936 2937 3028 3029 3030 3031 3032 3033
586 587 588 2122 2123 2124 2308 2309 2310 2314 2315 2316 2692 2693 2694 2698 2699 2700 2893 2894 2895 2902 2903 2904 2917 2918 2919 2926 2927 2928 2929 2930 2931 2938 2939 2940 3025 3026 3027 3034 3035 3036
586 587 588 2122 2123 2124 2308 2309 2310 2314 2315 2316 2692 2693 2694 2698 2699 2700 2893 2894 2895 2902 2903 2904 2917 2918 2919 2926 2927 2928 2929 2930 2931 2938 2939 2940 3025 3026 3027 3034 3035 3036
586 587 588 2122 2123 2124 2308 2309 2310 2314 2315 2316 2692 2693 2694 2698 2699 2700 2893 2894 2895 2902 2903 2904 2917 2918 2919 2926 2927 2928 2929 2930 2931 2938 2939 2940 3025 3026 3027 3034 3035 3036
589 590 591 2125 2126 2127 2317 2318 2319 2323 2324 2325 2701 2702 2703 2707 2708 2709 2881 2882 2883 2890 2891 2892 2905 2906 2907 2914 2915 2916 2941 2942 2943 2950 2951 2952 3037 3038 3039 3046 3047 3048
589 590 591 2125 2126 2127 2317 2318 2319 2323 2324 2325 2701 2702 2703 2707 2708 2709 2881 2882 2883 2890 2891 2892 2905 2906 2907 2914 2915 2916 2941 2942 2943 2950 2951 2952 3037 3038 3039 3046 3047 3048
589 590 591 2125 2126 2127 2317 2318 2319 2323 2324 2325 2701 2702 2703 2707 2708 2709 2881 2882 2883 2890 2891 2892 2905 2906 2907 2914 2915 2916 2941 2942 2943 2950 2951 2952 3037 3038 3039 3046 3047 3048
592 593 594 2128 2129 2130 2320 2321 2322 2326 2327 2328 2704 2705 2706 2710 2711 2712 2884 2885 2886 2887 2888 2889 2908 2909 2910 2911 2912 2913 2944 2945 2946 2947 2948 2949 3040 3041 3042 3043 3044 3045
592 593 594 2128 2129 2130 2320 2321 2322 2326 2327 2328 2704 2705 2706 2710 2711 2712 2884 2885 2886 2887 2888 2889 2908 2909 2910 2911 2912 2913 2944 2945 2946 2947 2948 2949 3040 3041 3042 3043 3044 3045
592 593 594 2128 2129 2130 2320 2321 2322 2326 2327 2328 2704 2705 2706 2710 2711 2712 2884 2885 2886 2887 2888 2889 2908 2909 2910 2911 2912 2913 2944 2945 2946 2947 2948 2949 3040 3041 3042 3043 3044 3045
595 596 597 2131 2132 2133 2317 2318 2319 2323 2324 2325 2701 2702 2703 2707 2708 2709 2884 2885 2886 2887 2888 2889 2908 2909 2910 2911 2912 2913 2944 2945 2946 2947 2948 2949 3040 3041 3042 3043 3044 3045
595 596 597 2131 2132 2133 2317 2318 2319 2323 2324 2325 2701 2702 2703 2707 2708 2709 2884 2885 2886 2887 2888 2889 2908 2909 2910 2911 2912 2913 2944 2945 2946 2947 2948 2949 3040 3041 3042 3043 3044 3045
595 596 597 2131 2132 2133 2317 2318 2319 2323 2324 2325 2701 2702 2703 2707 2708 2709 2884 2885 2886 2887 2888 2889 2908 2909 2910 2911 2912 2913 2944 2945 2946 2947 2948 2949 3040 3041 3042 3043 3044 3045
598 599 600 2134 2135 2136 2320 2321 2322 2326 2327 2328 2704 2705 2706 2710 2711 2712 2881 2882 2883 2890 2891 2892 2905 2906 2907 2914 2915 2916 2941 2942 2943 2950 2951 2952 3037 3038 3039 3046 3047 3048
598 599 600 2134 2135 2136 2320 2321 2322 2326 2327 2328 2704 2705 2706 2710 2711 2712 2881 2882 2883 2890 2891 2892 2905 2906 2907 2914 2915 2916 2941 2942 2943 2950 2951 2952 3037 3038 3039 3046 3047 3048
598 599 600 2134 2135 2136 2320 2321 2322 2326 2327 2328 2704 2705 2706 2710 2711 2712 2881 2882 2883 2890 2891 2892 2905 2906 2907 2914 2915 2916 2941 2942 2943 2950 2951 2952 3037 3038 3039 3046 3047 3048
601 602 603 2137 2138 2139 2329 2330 2331 2335 2336 2337 2713 2714 2715 2719 2720 2721 2893 2894 2895 2902 2903 2904 2917 2918 2919 2926 2927 2928 2953 2954 2955 2962 2963 2964 3049 3050 3051 3058 3059 3060
601 602 603 2137 2138 2139 2329 2330 2331 2335 2336 2337 2713 2714 2715 2719 2720 2721 2893 2894 2895 2902 2903 2904 2917 2918 2919 2926 2927 2928 2953 2954 2955 2962 2963 2964 3049 3050 3051 3058 3059 3060
601 602 603 2137 2138 2139 2329 2330 2331 2335 2336 2337 2713 2714 2715 2719 2720 2721 2893 2894 2895 2902 2903 2904 2917 2918 2919 2926 2927 2928 2953 2954 2955 2962 2963 2964 3049 3050 3051 3058 3059 3060
604 605 606 2140 2141 2142 2332 2333 2334 2338 2339 2340 2716 2717 2718 2722 2723 2724 2896 2897 2898 2899 2900 2901 2920 2921 2922 2923 2924 2925 2956 2957 2958 2959 2960 2961 3052 3053 3054 3055 3056 3057
604 605 606 2140 2141 2142 2332 2333 2334 2338 2339 2340 2716 2717 2718 2722 2723 2724 2896 2897 2898 2899 2900 2901 2920 2921 2922 2923 2924 2925 2956 2957 2958 2959 2960 2961 3052 3053 3054 3055 3056 3057
604 605 606 2140 2141 2142 2332 2333 2334 2338 2339 2340 2716 2717 2718 2722 2723 2724 2896 2897 2898 2899 2900 2901 2920 2921 2922 2923 2924 2925 2956 2957 2958 2959 2960 2961 3052 3053 3054 3055 3056 3057
607 608 609 2143 2144 2145 2329 2330 2331 2335 2336 2337 2713 2714 2715 2719 2720 2721 2896 2897 2898 2899 2900 2901 2920 2921 2922 2923 2924 2925 2956 2957 2958 2959 2960 2961 3052 3053 3054 3055 3056 3057
607 608 609 2143 2144 2145 2329 2330 2331 2335 2336 2337 2713 2714 2715 2719 2720 2721 2896 2897 2898 2899 2900 2901 2920 2921 2922 2923 2924 2925 2956 2957 2958 2959 2960 2961 3052 3053 3054 3055 3056 3057
607 608 609 2143 2144 2145 2329 2330 2331 2335 2336 2337 2713 2714 2715 2719 2720 2721 2896 2897 2898 2899 2900 2901 2920 2921 2922 2923 2924 2925 2956 2957 2958 2959 2960 2961 3052 3053 3054 3055 3056 3057
610 611 612 2146 2147 2148 2332 2333 2334 2338 2339 2340 2716 2717 2718 2722 2723 2724 2893 2894 2895 2902 2903 2904 2917 2918 2919 2926 2927 2928 2953 2954 2955 2962 2963 2964 3049 3050 3051 3058 3059 3060
610 611 612 2146 2147 2148 2332 2333 2334 2338 2339 2340 2716 2717 2718 2722 2723 2724 2893 2894 2895 2902 2903 2904 2917 2918 2919 2926 2927 2928 2953 2954 2955 2962 2963 2964 3049 3050 3051 3058 3059 3060
610 611 612 2146 2147 2148 2332 2333 2334 2338 2339 2340 2716 2717 2718 2722 2723 2724 2893 2894 2895 2902 2903 2904 2917 2918 2919 2926 2927 2928 2953 2954 2955 2962 2963 2964 3049 3050 3051 3058 3059 3060
613 614 615 2149 2150 2151 2341 2342 2343 2347 2348 2349 2725 2726 2727 2731 2732 2733 2881 2882 2883 2890 2891 2892 2905 2906 2907 2914 2915 2916 2965 2966 2967 2974 2975 2976 3061 3062 3063 3070 3071 3072
613 614 615 2149 2150 2151 2341 2342 2343 2347 2348 2349 2725 2726 2727 2731 2732 2733 2881 2882 2883 2890 2891 2892 2905 2906 2907 2914 2915 2916 2965 2966 2967 2974 2975 2976 3061 3062 3063 3070 3071 3072
613 614 615 2149 2150 2151 2341 2342 2343 2347 2348 2349 2725 2726 2727 2731 2732 2733 2881 2882 2883 2890 2891 2892 2905 2906 2907 2914 2915 2916 2965 2966 2967 2974 2975 2976 3061 3062 3063 3070 3071 3072
616 617 618 2152 2153 2154 2344 2345 2346 2350 2351 2352 2728 2729 2730 2734 2735 2736 2884 2885 2886 2887 2888 2889 2908 2909 2910 2911 2912 2913 2968 2969 2970 2971 2972 2973 3064 3065 3066 3067 3068 3069
616 617 618 2152 2153 2154 2344 2345 2346 2350 2351 2352 2728 2729 2730 2734 2735 2736 2884 2885 2886 2887 2888 2889 2908 2909 2910 2911 2912 2913 2968 2969 2970 2971 2972 2973 3064 3065 3066 3067 3068 3069
616 617 618 2152 2153 2154 2344 2345 2346 2350 2351 2352 2728 2729 2730 2734 2735 2736 2884 2885 2886 2887 2888 2889 2908 2909 2910 2911 2912 2913 2968 2969 2970 2971 2972 2973 3064 3065 3066 3067 3068 3069
619 620 621 2155 2156 2157 2341 2342 2343 2347 2348 2349 2725 2726 2727 2731 2732 2733 2884 2885 2886 2887 2888 2889 2908 2909 2910 2911 2912 2913 2968 2969 2970 2971 2972 2973 3064 3065 3066 3067 3068 3069
619 620 621 2155 2156 2157 2341 2342 2343 2347 2348 2349 2725 2726 2727 2731 2732 2733 2884 2885 2886 2887 2888 2889 2908 2909 2910 2911 2912 2913 2968 2969 2970 2971 2972 2973 3064 3065 3066 3067 3068 3069
619 620 621 2155 2156 2157 2341 2342 2343 2347 2348 2349 2725 2726 2727 2731 2732 2733 2884 2885 2886 2887 2888 2889 2908 2909 2910 2911 2912 2913 2968 2969 2970 2971 2972 2973 3064 3065 3066 3067 3068 3069
622 623 624 2158 2159 2160 2344 2345 2346 2350 2351 2352 2728 2729 2730 2734 2735 2736 2881 2882 2883 2890 2891 2892 2905 2906 2907 2914 2915 2916 2965 2966 2967 2974 2975 2976 3061 3062 3063 3070 3071 3072
622 623 624 2158 2159 2160 2344 2345 2346 2350 2351 2352 2728 2729 2730 2734 2735 2736 2881 2882 2883 2890 2891 2892 2905 2906 2907 2914 2915 2916 2965 2966 2967 2974 2975 2976 3061 3062 3063 3070 3071 3072
622 623 624 2158 2159 2160 2344 2345 2346 2350 2351 2352 2728 2729 2730 2734 2735 2736 2881 2882 2883 2890 2891 2892 2905 2906 2907 2914 2915 2916 2965 2966 2967 2974 2975 2976 3061 3062 3063 3070 3071 3072
625 626 627 2161 2162 2163 2353 2354 2355 2359 2360 2361 2737 2738 2739 2743 2744 2745 2881 2882 2883 2890 2891 2892 2941 2942 2943 2950 2951 2952 2965 2966 2967 2974 2975 2976 2977 2978 2979 2986 2987 2988
625 626 627 2161 2162 2163 2353 2354 2355 2359 2360 2361 2737 2738 2739 2743 2744 2745 2881 2882 2883 2890 2891 2892 2941 2942 2943 2950 2951 2952 2965 2966 2967 2974 2975 2976 2977 2978 2979 2986 2987 2988
625 626 627 2161 2162 2163 2353 2354 2355 2359 2360 2361 2737 2738 2739 2743 2744 2745 2881 2882 2883 2890 2891 2892 2941 2942 2943 2950 2951 2952 2965 2966 2967 2974 2975 2976 2977 2978 2979 2986 2987 2988
628 629 630 2164 2165 2166 2356 2357 2358 2362 2363 2364 2740 2741 2742 2746 2747 2748 2884 2885 2886 2887 2888 2889 2944 2945 2946 2947 2948 2949 2968 2969 2970 2971 2972 2973 2980 2981 2982 2983 2984 2985
628 629 630 2164 2165 2166 2356 2357 2358 2362 2363 2364 2740 2741 2742 2746 2747 2748 2884 2885 2886 2887 2888 2889 2944 2945 2946 2947 2948 2949 2968 2969 2970 2971 2972 2973 2980 2981 2982 2983 2984 2985
628 629 630 2164 2165 2166 2356 2357 2358 2362 2363 2364 2740 2741 2742 2746 2747 2748 2884 2885 2886 2887 2888 2889 2944 2945 2946 2947 2948 2949 2968 2969 2970 2971 2972 2973 2980 2981 2982 2983 2984 2985
631 632 633 2167 2168 2169 2353 2354 2355 2359 2360 2361 2737 2738 2739 2743 2744 2745 2884 2885 2886 2887 2888 2889 2944 2945 2946 2947 2948 2949 2968 2969 2970 2971 2972 2973 2980 2981 2982 2983 2984 2985
631 632 633 2167 2168 2169 2353 2354 2355 2359 2360 2361 2737 2738 2739 2743 2744 2745 2884 2885 2886 2887 2888 2889 2944 2945 2946 2947 2948 2949 2968 2969 2970 2971 2972 2973 2980 2981 2982 2983 2984 2985
631 632 633 2167 2168 2169 2353 2354 2355 2359 2360 2361 2737 2738 2739 2743 2744 2745 2884 2885 2886 2887 2888 2889 2944 2945 2946 2947 2948 2949 2968 2969 2970 2971 2972 2973 2980 2981 2982 2983 2984 2985
634 635 636 2170 2171 2172 2356 2357 2358 2362 2363 2364 2740 2741 2742 2746 2747 2748 2881 2882 2883 2890 2891 2892 2941 2942 2943 2950 2951 2952 2965 2966 2967 2974 2975 2976 2977 2978 2979 2986 2987 2988
634 635 636 2170 2171 2172 2356 2357 2358 2362 2363 2364 2740 2741 2742 2746 2747 2748 2881 2882 2883 2890 2891 2892 2941 2942 2943 2950 2951 2952 2965 2966 2967 2974 2975 2976 2977 2978 2979 2986 2987 2988
634 635 636 2170 2171 2172 2356 2357 2358 2362 2363 2364 2740 2741 2742 2746 2747 2748 2881 2882 2883 2890 2891 2892 2941 2942 2943 2950 2951 2952 2965 2966 2967 2974 2975 2976 2977 2978 2979 2986 2987 2988
637 638 639 2173 2174 2175 2365 2366 2367 2371 2372 2373 2749 2750 2751 2755 2756 2757 2893 2894 2895 2902 2903 2904 2929 2930 2931 2938 2939 2940 2953 2954 2955 2962 2963 2964 2989 2990 2991 2998 2999 3000
637 638 639 2173 2174 2175 2365 2366 2367 2371 2372 2373 2749 2750 2751 2755 2756 2757 2893 2894 2895 2902 2903 2904 2929 2930 2931 2938 2939 2940 2953 2954 2955 2962 2963 2964 2989 2990 2991 2998 2999 3000
637 638 639 2173 2174 2175 2365 2366 2367 2371 2372 2373 2749 2750 2751 2755 2756 2757 2893 2894 2895 2902 2903 2904 2929 2930 2931 2938 2939 2940 2953 2954 2955 2962 2963 2964 2989 2990 2991 2998 2999 3000
640 641 642 2176 2177 2178 2368 2369 2370 2374 2375 2376 2752 2753 2754 2758 2759 2760 2896 2897 2898 2899 2900 2901 2932 2933 2934 2935 2936 2937 2956 2957 2958 2959 2960 2961 2992 2993 2994 2995 2996 2997
640 641 642 2176 2177 2178 2368 2369 2370 2374 2375 2376 2752 2753 2754 2758 2759 2760 2896 2897 2898 2899 2900 2901 2932 2933 2934 2935 2936 2937 2956 2957 2958 2959 2960 2961 2992 2993 2994 2995 2996 2997
640 641 642 2176 2177 2178 2368 2369 2370 2374 2375 2376 2752 2753 2754 2758 2759 2760 2896 2897 2898 2899 2900 2901 2932 2933 2934 2935 2936 2937 2956 2957 2958 2959 2960 2961 2992 2993 2994 2995 2996 2997
643 644 645 2179 2180 2181 2365 2366 2367 2371 2372 2373 2749 2750 2751 2755 2756 2757 2896 2897 2898 2899 2900 2901 2932 2933 2934 2935 2936 2937 2956 2957 2958 2959 2960 2961 2992 2993 2994 2995 2996 2997
643 644 645 2179 2180 2181 2365 2366 2367 2371 2372 2373 2749 2750 2751 2755 2756 2757 2896 2897 2898 2899 2900 2901 2932 2933 2934 2935 2936 2937 2956 2957 2958 2959 2960 2961 2992 2993 2994 2995 2996 2997
643 644 645 2179 2180 2181 2365 2366 2367 2371 2372 2373 2749 2750 2751 2755 2756 2757 2896 2897 2898 2899 2900 2901 2932 2933 2934 2935 2936 2937 2956 2957 2958 2959 2960 2961 2992 2993 2994 2995 2996 2997
646 647 648 2182 2183 2184 2368 2369 2370 2374 2375 2376 2752 2753 2754 2758 2759 2760 2893 2894 2895 2902 2903 2904 2929 2930 2931 2938 2939 2940 2953 2954 2955 2962 2963 2964 2989 2990 2991 2998 2999 3000
646 647 648 2182 2183 2184 2368 2369 2370 2374 2375 2376 2752 2753 2754 2758 2759 2760 2893 2894 2895 2902 2903 2904 2929 2930 2931 2938 2939 2940 2953 2954 2955 2962 2963 2964 2989 2990 2991 2998 2999 3000
646 647 648 2182 2183 2184 2368 2369 2370 2374 2375 2376 2752 2753 2754 2758 2759 2760 2893 2894 2895 2902 2903 2904 2929 2930 2931 2938 2939 2940 2953 2954 2955 2962 2963 2964 2989 2990 2991 2998 2999 3000
649 650 651 2185 2186 2187 2377 2378 2379 2383 2384 2385 2761 2762 2763 2767 2768 2769 2905 2906 2907 2914 2915 2916 2941 2942 2943 2950 2951 2952 2965 2966 2967 2974 2975 2976 3001 3002 3003 3010 3011 3012
649 650 651 2185 2186 2187 2377 2378 2379 2383 2384 2385 2761 2762 2763 2767 2768 2769 2905 2906 2907 2914 2915 2916 2941 2942 2943 2950 2951 2952 2965 2966 2967 2974 2975 2976 3001 3002 3003 3010 3011 3012
649 650 651 2185 2186 2187 2377 2378 2379 2383 2384 2385 2761 2762 2763 2767 2768 2769 2905 2906 2907 2914 2915 2916 2941 2942 2943 2950 2951 2952 2965 2966 2967 2974 2975 2976 3001 3002 3003 3010 3011 3012
652 653 654 2188 2189 2190 2380 2381 2382 2386 2387 2388 2764 2765 2766 2770 2771 2772 2908 2909 2910 2911 2912 2913 2944 2945 2946 2947 2948 2949 2968 2969 2970 2971 2972 2973 3004 3005 3006 3007 3008 3009
652 653 654 2188 2189 2190 2380 2381 2382 2386 2387 2388 2764 2765 2766 2770 2771 2772 2908 2909 2910 2911 2912 2913 2944 2945 2946 2947 2948 2949 2968 2969 2970 2971 2972 2973 3004 3005 3006 3007 3008 3009
652 653 654 2188 2189 2190 2380 2381 2382 2386 2387 2388 2764 2765 2766 2770 2771 2772 2908 2909 2910 2911 2912 2913 2944 2945 2946 2947 2948 2949 2968 2969 2970 2971 2972 2973 3004 3005 3006 3007 3008 3009
655 656 657 2191 2192 2193 2377 2378 2379 2383 2384 2385 2761 2762 2763 2767 2768 2769 2908 2909 2910 2911 2912 2913 2944 2945 2946 2947 2948 2949 2968 2969 2970 2971 2972 2973 3004 3005 3006 3007 3008 3009
655 656 657 2191 2192 2193 2377 2378 2379 2383 2384 2385 2761 2762 2763 2767 2768 2769 2908 2909 2910 2911 2912 2913 2944 2945 2946 2947 2948 2949 2968 2969 2970 2971 2972 2973 3004 3005 3006 3007 3008 3009
655 656 657 2191 2192 2193 2377 2378 2379 2383 2384 2385 2761 2762 2763 2767 2768 2769 2908 2909 2910 2911 2912 2913 2944 2945 2946 2947 2948 2949 2968 2969 2970 2971 2972 2973 3004 3005 3006 3007 3008 3009
658 659 660 2194 2195 2196 2380 2381 2382 2386 2387 2388 2764 2765 2766 2770 2771 2772 2905 2906 2907 2914 2915 2916 2941 2942 2943 2950 2951 2952 2965 2966 2967 2974 2975 2976 3001 3002 3003 3010 3011 3012
658 659 660 2194 2195 2196 2380 2381 2382 2386 2387 2388 2764 2765 2766 2770 2771 2772 2905 2906 2907 2914 2915 2916 2941 2942 2943 2950 2951 2952 2965 2966 2967 2974 2975 2976 3001 3002 3003 3010 3011 3012
658 659 660 2194 2195 2196 2380 2381 2382 2386 2387 2388 2764 2765 2766 2770 2771 2772 2905 2906 2907 2914 2915 2916 2941 2942 2943 2950 2951 2952 2965 2966 2967 2974 2975 2976 3001 3002 3003 3010 3011 3012
661 662 663 2197 2198 2199 2389 2390 2391 2395 2396 2397 2773 2774 2775 2779 2780 2781 2917 2918 2919 2926 2927 2928 2929 2930 2931 2938 2939 2940 2953 2954 2955 2962 2963 2964 3013 3014 3015 3022 3023 3024
661 662 663 2197 2198 2199 2389 2390 2391 2395 2396 2397 2773 2774 2775 2779 2780 2781 2917 2918 2919 2926 2927 2928 2929 2930 2931 2938 2939 2940 2953 2954 2955 2962 2963 2964 3013 3014 3015 3022 3023 3024
661 662 663 2197 2198 2199 2389 2390 2391 2395 2396 2397 2773 2774 2775 2779 2780 2781 2917 2918 2919 2926 2927 2928 2929 2930 2931 2938 2939 2940 2953 2954 2955 2962 2963 2964 3013 3014 3015 3022 3023 3024
664 665 666 2200 2201 2202 2392 2393 2394 2398 2399 2400 2776 2777 2778 2782 2783 2784 2920 2921 2922 2923 2924 2925 2932 2933 2934 2935 2936 2937 2956 2957 2958 2959 2960 2961 3016 3017 3018 3019 3020 3021
664 665 666 2200 2201 2202 2392 2393 2394 2398 2399 2400 2776 2777 2778 2782 2783 2784 2920 2921 2922 2923 2924 2925 2932 2933 2934 2935 2936 2937 2956 2957 2958 2959 2960 2961 3016 3017 3018 3019 3020 3021
664 665 666 2200 2201 2202 2392 2393 2394 2398 2399 2400 2776 2777 2778 2782 2783 2784 2920 2921 2922 2923 2924 2925 2932 2933 2934 2935 2936 2937 2956 2957 2958 2959 2960 2961 3016 3017 3018 3019 3020 3021
667 668 669 2203 2204 2205 2389 2390 2391 2395 2396 2397 2773 2774 2775 2779 2780 2781 2920 2921 2922 2923 2924 2925 2932 2933 2934 2935 2936 2937 2956 2957 2958 2959 2960 2961 3016 3017 3018 3019 3020 3021
667 668 669 2203 2204 2205 2389 2390 2391 2395 2396 2397 2773 2774 2775 2779 2780 2781 2920 2921 2922 2923 2924 2925 2932 2933 2934 2935 2936 2937 2956 2957 2958 2959 2960 2961 3016 3017 3018 3019 3020 3021
667 668 669 2203 2204 2205 2389 2390 2391 2395 2396 2397 2773 2774 2775 2779 2780 2781 2920 2921 2922 2923 2924 2925 2932 2933 2934 2935 2936 2937 2956 2957 2958 2959 2960 2961 3016 3017 3018 3019 3020 3021
670 671 672 2206 2207 2208 2392 2393 2394 2398 2399 2400 2776 2777 2778 2782 2783 2784 2917 2918 2919 2926 2927 2928 2929 2930 2931 2938 2939 2940 2953 2954 2955 2962 2963 2964 3013 3014 3015 3022 3023 3024
670 671 672 2206 2207 2208 2392 2393 2394 2398 2399 2400 2776 2777 2778 2782 2783 2784 2917 2918 2919 2926 2927 2928 2929 2930 2931 2938 2939 2940 2953 2954 2955 2962 2963 2964 3013 3014 3015 3022 3023 3024
670 671 672 2206 2207 2208 2392 2393 2394 2398 2399 2400 2776 2777 2778 2782 2783 2784 2917 2918 2919 2926 2927 2928 2929 2930 2931 2938 2939 2940 2953 2954 2955 2962 2963 2964 3013 3014 3015 3022 3023 3024
673 674 675 2209 2210 2211 2401 2402 2403 2407 2408 2409 2785 2786 2787 2791 2792 2793 2929 2930 2931 2938 2939 2940 2989 2990 2991 2998 2999 3000 3013 3014 3015 3022 3023 3024 3025 3026 3027 3034 3035 3036
673 674 675 2209 2210 2211 2401 2402 2403 2407 2408 2409 2785 2786 2787 2791 2792 2793 2929 2930 2931 2938 2939 2940 2989 2990 2991 2998 2999 3000 3013 3014 3015 3022 3023 3024 3025 3026 3027 3034 3035 3036
673 674 675 2209 2210 2211 2401 2402 2403 2407 2408 2409 2785 2786 2787 2791 2792 2793 2929 2930 2931 2938 2939 2940 2989 2990 2991 2998 2999 3000 3013 3014 3015 3022 3023 3024 3025 3026 3027 3034 3035 3036
676 677 678 2212 2213 2214 2404 2405 2406 2410 2411 2412 2788 2789 2790 2794 2795 2796 2932 2933 2934 2935 2936 2937 2992 2993 2994 2995 2996 2997 3016 3017 3018 3019 3020 3021 3028 3029 3030 3031 3032 3033
676 677 678 2212 2213 2214 2404 2405 2406 2410 2411 2412 2788 2789 2790 2794 2795 2796 2932 2933 2934 2935 2936 2937 2992 2993 2994 2995 2996 2997 3016 3017 3018 3019 3020 3021 3028 3029 3030 3031 3032 3033
676 677 678 2212 2213 2214 2404 2405 2406 2410 2411 2412 2788 2789 2790 2794 2795 2796 2932 2933 2934 2935 2936 2937 2992 2993 2994 2995 2996 2997 3016 3017 3018 3019 3020 3021 3028 3029 3030 3031 3032 3033
679 680 681 2215 2216 2217 2401 2402 2403 2407 2408 2409 2785 2786 2787 2791 2792 2793 2932 2933 2934 2935 2936 2937 2992 2993 2994 2995 2996 2997 3016 3017 3018 3019 3020 3021 3028 3029 3030 3031 3032 3033
679 680 681 2215 2216 2217 2401 2402 2403 2407 2408 2409 2785 2786 2787 2791 2792 2793 2932 2933 2934 2935 2936 2937 2992 2993 2994 2995 2996 2997 3016 3017 3018 3019 3020 3021 3028 3029 3030 3031 3032 3033
679 680 681 2215 2216 2217 2401 2402 2403 2407 2408 2409 2785 2786 2787 2791 2792 2793 2932 2933 2934 2935 2936 2937 2992 2993 2994 2995 2996 2997 3016 3017 3018 3019 3020 3021 3028 3029 3030 3031 3032 3033
682 683 684 2218 2219 2220 2404 2405 2406 2410 2411 2412 2788 2789 2790 2794 2795 2796 2929 2930 2931 2938 2939 2940 2989 2990 2991 2998 2999 3000 3013 3014 3015 3022 3023 3024 3025 3026 3027 3034 3035 3036
682 683 684 2218 2219 2220 2404 2405 2406 2410 2411 2412 2788 2789 2790 2794 2795 2796 2929 2930 2931 2938 2939 2940 2989 2990 2991 2998 2999 3000 3013 3014 3015 3022 3023 3024 3025 3026 3027 3034 3035 3036
682 683 684 2218 2219 2220 2404 2405 2406 2410 2411 2412 2788 2789 2790 2794 2795 2796 2929 2930 2931 2938 2939 2940 2989 2990 2991 2998 2999 3000 3013 3014 3015 3022 3023 3024 3025 3026 3027 3034 3035 3036
685 686 687 2221 2222 2223 2413 2414 2415 2419 2420 2421 2797 2798 2799 2803 2804 2805 2941 2942 2943 2950 2951 2952 2977 2978 2979 2986 2987 2988 3001 3002 3003 3010 3011 3012 3037 3038 3039 3046 3047 3048
685 686 687 2221 2222 2223 2413 2414 2415 2419 2420 2421 2797 2798 2799 2803 2804 2805 2941 2942 2943 2950 2951 2952 2977 2978 2979 2986 2987 2988 3001 3002 3003 3010 3011 3012 3037 3038 3039 3046 3047 3048
685 686 687 2221 2222 2223 2413 2414 2415 2419 2420 2421 2797 2798 2799 2803 2804 2805 2941 2942 2943 2950 2951 2952 2977 2978 2979 2986 2987 2988 3001 3002 3003 3010 3011 3012 3037 3038 3039 3046 3047 3048
688 689 690 2224 2225 2226 2416 2417 2418 2422 2423 2424 2800 2801 2802 2806 2807 2808 2944 2945 2946 2947 2948 2949 2980 2981 2982 2983 2984 2985 3004 3005 3006 3007 3008 3009 3040 3041 3042 3043 3044 3045
688 689 690 2224 2225 2226 2416 2417 2418 2422 2423 2424 2800 2801 2802 2806 2807 2808 2944 2945 2946 2947 2948 2949 2980 2981 2982 2983 2984 2985 3004 3005 3006 3007 3008 3009 3040 3041 3042 3043 3044 3045
688 689 690 2224 2225 2226 2416 2417 2418 2422 2423 2424 2800 2801 2802 2806 2807 2808 2944 2945 2946 2947 2948 2949 2980 2981 2982 2983 2984 2985 3004 3005 3006 3007 3008 3009 3040 3041 3042 3043 3044 3045
691 692 693 2227 2228 2229 2413 2414 2415 2419 2420 2421 2797 2798 2799 2803 2804 2805 2944 2945 2946 2947 2948 2949 2980 2981 2982 2983 2984 2985 3004 3005 3006 3007 3008 3009 3040 3041 3042 3043 3044 3045
691 692 693 2227 2228 2229 2413 2414 2415 2419 2420 2421 2797 2798 2799 2803 2804 2805 2944 2945 2946 2947 2948 2949 2980 2981 2982 2983 2984 2985 3004 3005 3006 3007 3008 3009 3040 3041 3042 3043 3044 3045
691 692 693 2227 2228 2229 2413 2414 2415 2419 2420 2421 2797 2798 2799 2803 2804 2805 2944 2945 2946 2947 2948 2949 2980 2981 2982 2983 2984 2985 3004 3005 3006 3007 3008 3009 3040 3041 3042 3043 3044 3045
694 695 696 2230 2231 2232 2416 2417 2418 2422 2423 2424 2800 2801 2802 2806 2807 2808 2941 2942 2943 2950 2951 2952 2977 2978 2979 2986 2987 2988 3001 3002 3003 3010 3011 3012 3037 3038 3039 3046 3047 3048
694 695 696 2230 2231 2232 2416 2417 2418 2422 2423 2424 2800 2801 2802 2806 2807 2808 2941 2942 2943 2950 2951 2952 2977 2978 2979 2986 2987 2988 3001 3002 3003 3010 3011 3012 3037 3038 3039 3046 3047 3048
694 695 696 2230 2231 2232 2416 2417 2418 2422 2423 2424 2800 2801 2802 2806 2807 2808 2941 2942 2943 2950 2951 2952 2977 2978 2979 2986 2987 2988 3001 3002 3003 3010 3011 3012 3037 3038 3039 3046 3047 3048
697 698 699 2233 2234 2235 2425 2426 2427 2431 2432 2433 2809 2810 2811 2815 2816 2817 2953 2954 2955 2962 2963 2964 2989 2990 2991 2998 2999 3000 3013 3014 3015 3022 3023 3024 3049 3050 3051 3058 3059 3060
697 698 699 2233 2234 2235 2425 2426 2427 2431 2432 2433 2809 2810 2811 2815 2816 2817 2953 2954 2955 2962 2963 2964 2989 2990 2991 2998 2999 3000 3013 3014 3015 3022 3023 3024 3049 3050 3051 3058 3059 3060
697 698 699 2233 2234 2235 2425 2426 2427 2431 2432 2433 2809 2810 2811 2815 2816 2817 2953 2954 2955 2962 2963 2964 2989 2990 2991 2998 2999 3000 3013 3014 3015 3022 3023 3024 3049 3050 3051 3058 3059 3060
700 701 702 2236 2237 2238 2428 2429 2430 2434 2435 2436 2812 2813 2814 2818 2819 2820 2956 2957 2958 2959 2960 2961 2992 2993 2994 2995 2996 2997 3016 3017 3018 3019 3020 3021 3052 3053 3054 3055 3056 3057
700 701 702 2236 2237 2238 2428 2429 2430 2434 2435 2436 2812 2813 2814 2818 2819 2820 2956 2957 2958 2959 2960 2961 2992 2993 2994 2995 2996 2997 3016 3017 3018 3019 3020 3021 3052 3053 3054 3055 3056 3057
700 701 702 2236 2237 2238 2428 2429 2430 2434 2435 2436 2812 2813 2814 2818 2819 2820 2956 2957 2958 2959 2960 2961 2992 2993 2994 2995 2996 2997 3016 3017 3018 3019 3020 3021 3052 3053 3054 3055 3056 3057
703 704 705 2239 2240 2241 2425 2426 2427 2431 2432 2433 2809 2810 2811 2815 2816 2817 2956 2957 2958 2959 2960 2961 2992 2993 2994 2995 2996 2997 3016 3017 3018 3019 3020 3021 3052 3053 3054 3055 3056 3057
703 704 705 2239 2240 2241 2425 2426 2427 2431 2432 2433 2809 2810 2811 2815 2816 2817 2956 2957 2958 2959 2960 2961 2992 2993 2994 2995 2996 2997 3016 3017 3018 3019 3020 3021 3052 3053 3054 3055 3056 3057
703 704 705 2239 2240 2241 2425 2426 2427 2431 2432 2433 2809 2810 2811 2815 2816 2817 2956 2957 2958 2959 2960 2961 2992 2993 2994 2995 2996 2997 3016 3017 3018 3019 3020 3021 3052 3053 3054 3055 3056 3057
706 707 708 2242 2243 2244 2428 2429 2430 2434 2435 2436 2812 2813 2814 2818 2819 2820 2953 2954 2955 2962 2963 2964 2989 2990 2991 2998 2999 3000 3013 3014 3015 3022 3023 3024 3049 3050 3051 3058 3059 3060
706 707 708 2242 2243 2244 2428 2429 2430 2434 2435 2436 2812 2813 2814 2818 2819 2820 2953 2954 2955 2962 2963 2964 2989 2990 2991 2998 2999 3000 3013 3014 3015 3022 3023 3024 3049 3050 3051 3058 3059 3060
706 707 708 2242 2243 2244 2428 2429 2430 2434 2435 2436 2812 2813 2814 2818 2819 2820 2953 2954 2955 2962 2963 2964 2989 2990 2991 2998 2999 3000 3013 3014 3015 3022 3023 3024 3049 3050 3051 3058 3059 3060
709 710 711 2245 2246 2247 2437 2438 2439 2443 2444 2445 2821 2822 2823 2827 2828 2829 2965 2966 2967 2974 2975 2976 2977 2978 2979 2986 2987 2988 3001 3002 3003 3010 3011 3012 3061 3062 3063 3070 3071 3072
709 710 711 2245 2246 2247 2437 2438 2439 2443 2444 2445 2821 2822 2823 2827 2828 2829 2965 2966 2967 2974 2975 2976 2977 2978 2979 2986 2987 2988 3001 3002 3003 3010 3011 3012 3061 3062 3063 3070 3071 3072
709 710 711 2245 2246 2247 2437 2438 2439 2443 2444 2445 2821 2822 2823 2827 2828 2829 2965 2966 2967 2974 2975 2976 2977 2978 2979 2986 2987 2988 3001 3002 3003 3010 3011 3012 3061 3062 3063 3070 3071 3072
712 713 714 2248 2249 2250 2440 2441 2442 2446 2447 2448 2824 2825 2826 2830 2831 2832 2968 2969 2970 2971 2972 2973 2980 2981 2982 2983 2984 2985 3004 3005 3006 3007 3008 3009 3064 3065 3066 3067 3068 3069
712 713 714 2248 2249 2250 2440 2441 2442 2446 2447 2448 2824 2825 2826 2830 2831 2832 2968 2969 2970 2971 2972 2973 2980 2981 2982 2983 2984 2985 3004 3005 3006 3007 3008 3009 3064 3065 3066 3067 3068 3069
712 713 714 2248 2249 2250 2440 2441 2442 2446 2447 2448 2824 2825 2826 2830 2831 2832 2968 2969 2970 2971 2972 2973 2980 2981 2982 2983 2984 2985 3004 3005 3006 3007 3008 3009 3064 3065 3066 3067 3068 3069
715 716 717 2251 2252 2253 2437 2438 2439 2443 2444 2445 2821 2822 2823 2827 2828 2829 2968 2969 2970 2971 2972 2973 2980 2981 2982 2983 2984 2985 3004 3005 3006 3007 3008 3009 3064 3065 3066 3067 3068 3069
715 716 717 2251 2252 2253 2437 2438 2439 2443 2444 2445 2821 2822 2823 2827 2828 2829 2968 2969 2970 2971 2972 2973 2980 2981 2982 2983 2984 2985 3004 3005 3006 3007 3008 3009 3064 3065 3066 3067 3068 3069
715 716 717 2251 2252 2253 2437 2438 2439 2443 2444 2445 2821 2822 2823 2827 2828 2829 2968 2969 2970 2971 2972 2973 2980 2981 2982 2983 2984 2985 3004 3005 3006 3007 3008 3009 3064 3065 3066 3067 3068 3069
718 719 720 2254 2255 2256 2440 2441 2442 2446 2447 2448 2824 2825 2826 2830 2831 2832 2965 2966 2967 2974 2975 2976 2977 2978 2979 2986 2987 2988 3001 3002 3003 3010 3011 3012 3061 3062 3063 3070 3071 3072
718 719 720 2254 2255 2256 2440 2441 2442 2446 2447 2448 2824 2825 2826 2830 2831 2832 2965 2966 2967 2974 2975 2976 2977 2978 2979 2986 2987 2988 3001 3002 3003 3010 3011 3012 3061 3062 3063 3070 3071 3072
718 719 720 2254 2255 2256 2440 2441 2442 2446 2447 2448 2824 2825 2826 2830 2831 2832 2965 2966 2967 2974 2975 2976 2977 2978 2979 2986 2987 2988 3001 3002 3003 3010 3011 3012 3061 3062 3063 3070 3071 3072
721 722 723 2257 2258 2259 2449 2450 2451 2455 2456 2457 2833 2834 2835 2839 2840 2841 2881 2882 2883 2890 2891 2892 2977 2978 2979 2986 2987 2988 3037 3038 3039 3046 3047 3048 3061 3062 3063 3070 3071 3072
721 722 723 2257 2258 2259 2449 2450 2451 2455 2456 2457 2833 2834 2835 2839 2840 2841 2881 2882 2883 2890 2891 2892 2977 2978 2979 2986 2987 2988 3037 3038 3039 3046 3047 3048 3061 3062 3063 3070 3071 3072
721 722 723 2257 2258 2259 2449 2450 2451 2455 2456 2457 2833 2834 2835 2839 2840 2841 2881 2882 2883 2890 2891 2892 2977 2978 2979 2986 2987 2988 3037 3038 3039 3046 3047 3048 3061 3062 3063 3070 3071 3072
724 725 726 2260 2261 2262 2452 2453 2454 2458 2459 2460 2836 2837 2838 2842 2843 2844 2884 2885 2886 2887 2888 2889 2980 2981 2982 2983 2984 2985 3040 3041 3042 3043 3044 3045 3064 3065 3066 3067 3068 3069
724 725 726 2260 2261 2262 2452 2453 2454 2458 2459 2460 2836 2837 2838 2842 2843 2844 2884 2885 2886 2887 2888 2889 2980 2981 2982 2983 2984 2985 3040 3041 3042 3043 3044 3045 3064 3065 3066 3067 3068 3069
724 725 726 2260 2261 2262 2452 2453 2454 2458 2459 2460 2836 2837 2838 2842 2843 2844 2884 2885 2886 2887 2888 2889 2980 2981 2982 2983 2984 2985 3040 3041 3042 3043 3044 3045 3064 3065 3066 3067 3068 3069
727 728 729 2263 2264 2265 2449 2450 2451 2455 2456 2457 2833 2834 2835 2839 2840 2841 2884 2885 2886 2887 2888 2889 2980 2981 2982 2983 2984 2985 3040 3041 3042 3043 3044 3045 3064 3065 3066 3067 3068 3069
727 728 729 2263 2264 2265 2449 2450 2451 2455 2456 2457 2833 2834 2835 2839 2840 2841 2884 2885 2886 2887 2888 2889 2980 2981 2982 2983 2984 2985 3040 3041 3042 3043 3044 3045 3064 3065 3066 3067 3068 3069
727 728 729 2263 2264 2265 2449 2450 2451 2455 2456 2457 2833 2834 2835 2839 2840 2841 2884 2885 2886 2887 2888 2889 2980 2981 2982 2983 2984 2985 3040 3041 3042 3043 3044 3045 3064 3065 3066 3067 3068 3069
730 731 732 2266 2267 2268 2452 2453 2454 2458 2459 2460 2836 2837 2838 2842 2843 2844 2881 2882 2883 2890 2891 2892 2977 2978 2979 2986 2987 2988 3037 3038 3039 3046 3047 3048 3061 3062 3063 3070 3071 3072
730 731 732 2266 2267 2268 2452 2453 2454 2458 2459 2460 2836 2837 2838 2842 2843 2844 2881 2882 2883 2890 2891 2892 2977 2978 2979 2986 2987 2988 3037 3038 3039 3046 3047 3048 3061 3062 3063 3070 3071 3072
730 731 732 2266 2267 2268 2452 2453 2454 2458 2459 2460 2836 2837 2838 2842 2843 2844 2881 2882 2883 2890 2891 2892 2977 2978 2979 2986 2987 2988 3037 3038 3039 3046 3047 3048 3061 3062 3063 3070 3071 3072
733 734 735 2269 2270 2271 2461 2462 2463 2467 2468 2469 2845 2846 2847 2851 2852 2853 2893 2894 2895 2902 2903 2904 2989 2990 2991 2998 2999 3000 3025 3026 3027 3034 3035 3036 3049 3050 3051 3058 3059 3060
733 734 735 2269 2270 2271 2461 2462 2463 2467 2468 2469 2845 2846 2847 2851 2852 2853 2893 2894 2895 2902 2903 2904 2989 2990 2991 2998 2999 3000 3025 3026 3027 3034 3035 3036 3049 3050 3051 3058 3059 3060
733 734 735 2269 2270 2271 2461 2462 2463 2467 2468 2469 2845 2846 2847 2851 2852 2853 2893 2894 2895 2902 2903 2904 2989 2990 2991 2998 2999 3000 3025 3026 3027 3034 3035 3036 3049 3050 3051 3058 3059 3060
736 737 738 2272 2273 2274 2464 2465 2466 2470 2471 2472 2848 2849 2850 2854 2855 2856 2896 2897 2898 2899 2900 2901 2992 2993 2994 2995 2996 2997 3028 3029 3030 3031 3032 3033 3052 3053 3054 3055 3056 3057
736 737 738 2272 2273 2274 2464 2465 2466 2470 2471 2472 2848 2849 2850 2854 2855 2856 2896 2897 2898 2899 2900 2901 2992 2993 2994 2995 2996 2997 3028 3029 3030 3031 3032 3033 3052 3053 3054 3055 3056 3057
736 737 738 2272 2273 2274 2464 2465 2466 2470 2471 2472 2848 2849 2850 2854 2855 2856 2896 2897 2898 2899 2900 2901 2992 2993 2994 2995 2996 2997 3028 3029 3030 3031 3032 3033 3052 3053 3054 3055 3056 3057
739 740 741 2275 2276 2277 2461 2462 2463 2467 2468 2469 2845 2846 2847 2851 2852 2853 2896 2897 2898 2899 2900 2901 2992 2993 2994 2995 2996 2997 3028 3029 3030 3031 3032 3033 3052 3053 3054 3055 3056 3057
739 740 741 2275 2276 2277 2461 2462 2463 2467 2468 2469 2845 2846 2847 2851 2852 2853 2896 2897 2898 2899 2900 2901 2992 2993 2994 2995 2996 2997 3028 3029 3030 3031 3032 3033 3052 3053 3054 3055 3056 3057
739 740 741 2275 2276 2277 2461 2462 2463 2467 2468 2469 2845 2846 2847 2851 2852 2853 2896 2897 2898 2899 2900 2901 2992 2993 2994 2995 2996 2997 3028 3029 3030 3031 3032 3033 3052 3053 3054 3055 3056 3057
742 743 744 2278 2279 2280 2464 2465 2466 2470 2471 2472 2848 2849 2850 2854 2855 2856 2893 2894 2895 2902 2903 2904 2989 2990 2991 2998 2999 3000 3025 3026 3027 3034 3035 3036 3049 3050 3051 3058 3059 3060
742 743 744 2278 2279 2280 2464 2465 2466 2470 2471 2472 2848 2849 2850 2854 2855 2856 2893 2894 2895 2902 2903 2904 2989 2990 2991 2998 2999 3000 3025 3026 3027 3034 3035 3036 3049 3050 3051 3058 3059 3060
742 743 744 2278 2279 2280 2464 2465 2466 2470 2471 2472 2848 2849 2850 2854 2855 2856 2893 2894 2895 2902 2903 2904 2989 2990 2991 2998 2999 3000 3025 3026 3027 3034 3035 3036 3049 3050 3051 3058 3059 3060
745 746 747 2281 2282 2283 2473 2474 2475 2479 2480 2481 2857 2858 2859 2863 2864 2865 2905 2906 2907 2914 2915 2916 3001 3002 3003 3010 3011 3012 3037 3038 3039 3046 3047 3048 3061 3062 3063 3070 3071 3072
745 746 747 2281 2282 2283 2473 2474 2475 2479 2480 2481 2857 2858 2859 2863 2864 2865 2905 2906 2907 2914 2915 2916 3001 3002 3003 3010 3011 3012 3037 3038 3039 3046 3047 3048 3061 3062 3063 3070 3071 3072
745 746 747 2281 2282 2283 2473 2474 2475 2479 2480 2481 2857 2858 2859 2863 2864 2865 2905 2906 2907 2914 2915 2916 3001 3002 3003 3010 3011 3012 3037 3038 3039 3046 3047 3048 3061 3062 3063 3070 3071 3072
748 749 750 2284 2285 2286 2476 2477 2478 2482 2483 2484 2860 2861 2862 2866 2867 2868 2908 2909 2910 2911 2912 2913 3004 3005 3006 3007 3008 3009 3040 3041 3042 3043 3044 3045 3064 3065 3066 3067 3068 3069
748 749 750 2284 2285 2286 2476 2477 2478 2482 2483 2484 2860 2861 2862 2866 2867 2868 2908 2909 2910 2911 2912 2913 3004 3005 3006 3007 3008 3009 3040 3041 3042 3043 3044 3045 3064 3065 3066 3067 3068 3069
748 749 750 2284 2285 2286 2476 2477 2478 2482 2483 2484 2860 2861 2862 2866 2867 2868 2908 2909 2910 2911 2912 2913 3004 3005 3006 3007 3008 3009 3040 3041 3042 3043 3044 3045 3064 3065 3066 3067 3068 3069
751 752 753 2287 2288 2289 2473 2474 2475 2479 2480 2481 2857 2858 2859 2863 2864 2865 2908 2909 2910 2911 2912 2913 3004 3005 3006 3007 3008 3009 3040 3041 3042 3043 3044 3045 3064 3065 3066 3067 3068 3069
751 752 753 2287 2288 2289 2473 2474 2475 2479 2480 2481 2857 2858 2859 2863 2864 2865 2908 2909 2910 2911 2912 2913 3004 3005 3006 3007 3008 3009 3040 3041 3042 3043 3044 3045 3064 3065 3066 3067 3068 3069
751 752 753 2287 2288 2289 2473 2474 2475 2479 2480 2481 2857 2858 2859 2863 2864 2865 2908 2909 2910 2911 2912 2913 3004 3005 3006 3007 3008 3009 3040 3041 3042 3043 3044 3045 3064 3065 3066 3067 3068 3069
754 755 756 2290 2291 2292 2476 2477 2478 2482 2483 2484 2860 2861 2862 2866 2867 2868 2905 2906 2907 2914 2915 2916 3001 3002 3003 3010 3011 3012 3037 3038 3039 3046 3047 3048 3061 3062 3063 3070 3071 3072
754 755 756 2290 2291 2292 2476 2477 2478 2482 2483 2484 2860 2861 2862 2866 2867 2868 2905 2906 2907 2914 2915 2916 3001 3002 3003 3010 3011 3012 3037 3038 3039 3046 3047 3048 3061 3062 3063 3070 3071 3072
754 755 756 2290 2291 2292 2476 2477 2478 2482 2483 2484 2860 2861 2862 2866 2867 2868 2905 2906 2907 2914 2915 2916 3001 3002 3003 3010 3011 3012 3037 3038 3039 3046 3047 3048 3061 3062 3063 3070 3071 3072
757 758 759 2293 2294 2295 2485 2486 2487 2491 2492 2493 2869 2870 2871 2875 2876 2877 2917 2918 2919 2926 2927 2928 3013 3014 3015 3022 3023 3024 3025 3026 3027 3034 3035 3036 3049 3050 3051 3058 3059 3060
757 758 759 2293 2294 2295 2485 2486 2487 2491 2492 2493 2869 2870 2871 2875 2876 2877 2917 2918 2919 2926 2927 2928 3013 3014 3015 3022 3023 3024 3025 3026 3027 3034 3035 3036 3049 3050 3051 3058 3059 3060
757 758 759 2293 2294 2295 2485 2486 2487 2491 2492 2493 2869 2870 2871 2875 2876 2877 2917 2918 2919 2926 2927 2928 3013 3014 3015 3022 3023 3024 3025 3026 3027 3034 3035 3036 3049 3050 3051 3058 3059 3060
760 761 762 2296 2297 2298 2488 2489 2490 2494 2495 2496 2872 2873 2874 2878 2879 2880 2920 2921 2922 2923 2924 2925 3016 3017 3018 3019 3020 3021 3028 3029 3030 3031 3032 3033 3052 3053 3054 3055 3056 3057
760 761 762 2296 2297 2298 2488 2489 2490 2494 2495 2496 2872 2873 2874 2878 2879 2880 2920 2921 2922 2923 2924 2925 3016 3017 3018 3019 3020 3021 3028 3029 3030 3031 3032 3033 3052 3053 3054 3055 3056 3057
760 761 762 2296 2297 2298 2488 2489 2490 2494 2495 2496 2872 2873 2874 2878 2879 2880 2920 2921 2922 2923 2924 2925 3016 3017 3018 3019 3020 3021 3028 3029 3030 3031 3032 3033 3052 3053 3054 3055 3056 3057
763 764 765 2299 2300 2301 2485 2486 2487 2491 2492 2493 2869 2870 2871 2875 2876 2877 2920 2921 2922 2923 2924 2925 3016 3017 3018 3019 3020 3021 3028 3029 3030 3031 3032 3033 3052 3053 3054 3055 3056 3057
763 764 765 2299 2300 2301 2485 2486 2487 2491 2492 2493 2869 2870 2871 2875 2876 2877 2920 2921 2922 2923 2924 2925 3016 3017 3018 3019 3020 3021 3028 3029 3030 3031 3032 3033 3052 3053 3054 3055 3056 3057
763 764 765 2299 2300 2301 2485 2486 2487 2491 2492 2493 2869 2870 2871 2875 2876 2877 2920 2921 2922 2923 2924 2925 3016 3017 3018 3019 3020 3021 3028 3029 3030 3031 3032 3033 3052 3053 3054 3055 3056 3057
766 767 768 2302 2303 2304 2488 2489 2490 2494 2495 2496 2872 2873 2874 2878 2879 2880 2917 2918 2919 2926 2927 2928 3013 3014 3015 3022 3023 3024 3025 3026 3027 3034 3035 3036 3049 3050 3051 3058 3059 3060
766 767 768 2302 2303 2304 2488 2489 2490 2494 2495 2496 2872 2873 2874 2878 2879 2880 2917 2918 2919 2926 2927 2928 3013 3014 3015 3022 3023 3024 3025 3026 3027 3034 3035 3036 3049 3050 3051 3058 3059 3060
766 767 768 2302 2303 2304 2488 2489 2490 2494 2495 2496 2872 2873 2874 2878 2879 2880 2917 2918 2919 2926 2927 2928 3013 3014 3015 3022 3023 3024 3025 3026 3027 3034 3035 3036 3049 3050 3051 3058 3059 3060
