3200 7840
2 3 81
1 4 82
1 4 5 83
2 3 6 84
3 6 7 85
4 5 8 86
5 8 9 87
6 7 10 88
7 10 11 89
8 9 12 90
9 12 13 91
10 11 14 92
11 14 15 93
12 13 16 94
13 16 17 95
14 15 18 96
15 18 19 97
16 17 20 98
17 20 21 99
18 19 22 100
19 22 23 101
20 21 24 102
21 24 25 103
22 23 26 104
23 26 27 105
24 25 28 106
25 28 29 107
26 27 30 108
27 30 31 109
28 29 32 110
29 32 33 111
30 31 34 112
31 34 35 113
32 33 36 114
33 36 37 115
34 35 38 116
35 38 39 117
36 37 40 118
37 40 41 119
38 39 42 120
39 42 43 121
40 41 44 122
41 44 45 123
42 43 46 124
43 46 47 125
44 45 48 126
45 48 49 127
46 47 50 128
47 50 51 129
48 49 52 130
49 52 53 131
50 51 54 132
51 54 55 133
52 53 56 134
53 56 57 135
54 55 58 136
55 58 59 137
56 57 60 138
57 60 61 139
58 59 62 140
59 62 63 141
60 61 64 142
61 64 65 143
62 63 66 144
63 66 67 145
64 65 68 146
65 68 69 147
66 67 70 148
67 70 71 149
68 69 72 150
69 72 73 151
70 71 74 152
71 74 75 153
72 73 76 154
73 76 77 155
74 75 78 156
75 78 79 157
76 77 80 158
77 80 159
78 79 160
1 82 83 161
2 81 84 162
3 81 84 85 163
4 82 83 86 164
5 83 86 87 165
6 84 85 88 166
7 85 88 89 167
8 86 87 90 168
9 87 90 91 169
10 88 89 92 170
11 89 92 93 171
12 90 91 94 172
13 91 94 95 173
14 92 93 96 174
15 93 96 97 175
16 94 95 98 176
17 95 98 99 177
18 96 97 100 178
19 97 100 101 179
20 98 99 102 180
21 99 102 103 181
22 100 101 104 182
23 101 104 105 183
24 102 103 106 184
25 103 106 107 185
26 104 105 108 186
27 105 108 109 187
28 106 107 110 188
29 107 110 111 189
30 108 109 112 190
31 109 112 113 191
32 110 111 114 192
33 111 114 115 193
34 112 113 116 194
35 113 116 117 195
36 114 115 118 196
37 115 118 119 197
38 116 117 120 198
39 117 120 121 199
40 118 119 122 200
41 119 122 123 201
42 120 121 124 202
43 121 124 125 203
44 122 123 126 204
45 123 126 127 205
46 124 125 128 206
47 125 128 129 207
48 126 127 130 208
49 127 130 131 209
50 128 129 132 210
51 129 132 133 211
52 130 131 134 212
53 131 134 135 213
54 132 133 136 214
55 133 136 137 215
56 134 135 138 216
57 135 138 139 217
58 136 137 140 218
59 137 140 141 219
60 138 139 142 220
61 139 142 143 221
62 140 141 144 222
63 141 144 145 223
64 142 143 146 224
65 143 146 147 225
66 144 145 148 226
67 145 148 149 227
68 146 147 150 228
69 147 150 151 229
70 148 149 152 230
71 149 152 153 231
72 150 151 154 232
73 151 154 155 233
74 152 153 156 234
75 153 156 157 235
76 154 155 158 236
77 155 158 159 237
78 156 157 160 238
79 157 160 239
80 158 159 240
81 162 163 241
82 161 164 242
83 161 164 165 243
84 162 163 166 244
85 163 166 167 245
86 164 165 168 246
87 165 168 169 247
88 166 167 170 248
89 167 170 171 249
90 168 169 172 250
91 169 172 173 251
92 170 171 174 252
93 171 174 175 253
94 172 173 176 254
95 173 176 177 255
96 174 175 178 256
97 175 178 179 257
98 176 177 180 258
99 177 180 181 259
100 178 179 182 260
101 179 182 183 261
102 180 181 184 262
103 181 184 185 263
104 182 183 186 264
105 183 186 187 265
106 184 185 188 266
107 185 188 189 267
108 186 187 190 268
109 187 190 191 269
110 188 189 192 270
111 189 192 193 271
112 190 191 194 272
113 191 194 195 273
114 192 193 196 274
115 193 196 197 275
116 194 195 198 276
117 195 198 199 277
118 196 197 200 278
119 197 200 201 279
120 198 199 202 280
121 199 202 203 281
122 200 201 204 282
123 201 204 205 283
124 202 203 206 284
125 203 206 207 285
126 204 205 208 286
127 205 208 209 287
128 206 207 210 288
129 207 210 211 289
130 208 209 212 290
131 209 212 213 291
132 210 211 214 292
133 211 214 215 293
134 212 213 216 294
135 213 216 217 295
136 214 215 218 296
137 215 218 219 297
138 216 217 220 298
139 217 220 221 299
140 218 219 222 300
141 219 222 223 301
142 220 221 224 302
143 221 224 225 303
144 222 223 226 304
145 223 226 227 305
146 224 225 228 306
147 225 228 229 307
148 226 227 230 308
149 227 230 231 309
150 228 229 232 310
151 229 232 233 311
152 230 231 234 312
153 231 234 235 313
154 232 233 236 314
155 233 236 237 315
156 234 235 238 316
157 235 238 239 317
158 236 237 240 318
159 237 240 319
160 238 239 320
161 242 243 321
162 241 244 322
163 241 244 245 323
164 242 243 246 324
165 243 246 247 325
166 244 245 248 326
167 245 248 249 327
168 246 247 250 328
169 247 250 251 329
170 248 249 252 330
171 249 252 253 331
172 250 251 254 332
173 251 254 255 333
174 252 253 256 334
175 253 256 257 335
176 254 255 258 336
177 255 258 259 337
178 256 257 260 338
179 257 260 261 339
180 258 259 262 340
181 259 262 263 341
182 260 261 264 342
183 261 264 265 343
184 262 263 266 344
185 263 266 267 345
186 264 265 268 346
187 265 268 269 347
188 266 267 270 348
189 267 270 271 349
190 268 269 272 350
191 269 272 273 351
192 270 271 274 352
193 271 274 275 353
194 272 273 276 354
195 273 276 277 355
196 274 275 278 356
197 275 278 279 357
198 276 277 280 358
199 277 280 281 359
200 278 279 282 360
201 279 282 283 361
202 280 281 284 362
203 281 284 285 363
204 282 283 286 364
205 283 286 287 365
206 284 285 288 366
207 285 288 289 367
208 286 287 290 368
209 287 290 291 369
210 288 289 292 370
211 289 292 293 371
212 290 291 294 372
213 291 294 295 373
214 292 293 296 374
215 293 296 297 375
216 294 295 298 376
217 295 298 299 377
218 296 297 300 378
219 297 300 301 379
220 298 299 302 380
221 299 302 303 381
222 300 301 304 382
223 301 304 305 383
224 302 303 306 384
225 303 306 307 385
226 304 305 308 386
227 305 308 309 387
228 306 307 310 388
229 307 310 311 389
230 308 309 312 390
231 309 312 313 391
232 310 311 314 392
233 311 314 315 393
234 312 313 316 394
235 313 316 317 395
236 314 315 318 396
237 315 318 319 397
238 316 317 320 398
239 317 320 399
240 318 319 400
241 322 323 401
242 321 324 402
243 321 324 325 403
244 322 323 326 404
245 323 326 327 405
246 324 325 328 406
247 325 328 329 407
248 326 327 330 408
249 327 330 331 409
250 328 329 332 410
251 329 332 333 411
252 330 331 334 412
253 331 334 335 413
254 332 333 336 414
255 333 336 337 415
256 334 335 338 416
257 335 338 339 417
258 336 337 340 418
259 337 340 341 419
260 338 339 342 420
261 339 342 343 421
262 340 341 344 422
263 341 344 345 423
264 342 343 346 424
265 343 346 347 425
266 344 345 348 426
267 345 348 349 427
268 346 347 350 428
269 347 350 351 429
270 348 349 352 430
271 349 352 353 431
272 350 351 354 432
273 351 354 355 433
274 352 353 356 434
275 353 356 357 435
276 354 355 358 436
277 355 358 359 437
278 356 357 360 438
279 357 360 361 439
280 358 359 362 440
281 359 362 363 441
282 360 361 364 442
283 361 364 365 443
284 362 363 366 444
285 363 366 367 445
286 364 365 368 446
287 365 368 369 447
288 366 367 370 448
289 367 370 371 449
290 368 369 372 450
291 369 372 373 451
292 370 371 374 452
293 371 374 375 453
294 372 373 376 454
295 373 376 377 455
296 374 375 378 456
297 375 378 379 457
298 376 377 380 458
299 377 380 381 459
300 378 379 382 460
301 379 382 383 461
302 380 381 384 462
303 381 384 385 463
304 382 383 386 464
305 383 386 387 465
306 384 385 388 466
307 385 388 389 467
308 386 387 390 468
309 387 390 391 469
310 388 389 392 470
311 389 392 393 471
312 390 391 394 472
313 391 394 395 473
314 392 393 396 474
315 393 396 397 475
316 394 395 398 476
317 395 398 399 477
318 396 397 400 478
319 397 400 479
320 398 399 480
321 402 403 481
322 401 404 482
323 401 404 405 483
324 402 403 406 484
325 403 406 407 485
326 404 405 408 486
327 405 408 409 487
328 406 407 410 488
329 407 410 411 489
330 408 409 412 490
331 409 412 413 491
332 410 411 414 492
333 411 414 415 493
334 412 413 416 494
335 413 416 417 495
336 414 415 418 496
337 415 418 419 497
338 416 417 420 498
339 417 420 421 499
340 418 419 422 500
341 419 422 423 501
342 420 421 424 502
343 421 424 425 503
344 422 423 426 504
345 423 426 427 505
346 424 425 428 506
347 425 428 429 507
348 426 427 430 508
349 427 430 431 509
350 428 429 432 510
351 429 432 433 511
352 430 431 434 512
353 431 434 435 513
354 432 433 436 514
355 433 436 437 515
356 434 435 438 516
357 435 438 439 517
358 436 437 440 518
359 437 440 441 519
360 438 439 442 520
361 439 442 443 521
362 440 441 444 522
363 441 444 445 523
364 442 443 446 524
365 443 446 447 525
366 444 445 448 526
367 445 448 449 527
368 446 447 450 528
369 447 450 451 529
370 448 449 452 530
371 449 452 453 531
372 450 451 454 532
373 451 454 455 533
374 452 453 456 534
375 453 456 457 535
376 454 455 458 536
377 455 458 459 537
378 456 457 460 538
379 457 460 461 539
380 458 459 462 540
381 459 462 463 541
382 460 461 464 542
383 461 464 465 543
384 462 463 466 544
385 463 466 467 545
386 464 465 468 546
387 465 468 469 547
388 466 467 470 548
389 467 470 471 549
390 468 469 472 550
391 469 472 473 551
392 470 471 474 552
393 471 474 475 553
394 472 473 476 554
395 473 476 477 555
396 474 475 478 556
397 475 478 479 557
398 476 477 480 558
399 477 480 559
400 478 479 560
401 482 483 561
402 481 484 562
403 481 484 485 563
404 482 483 486 564
405 483 486 487 565
406 484 485 488 566
407 485 488 489 567
408 486 487 490 568
409 487 490 491 569
410 488 489 492 570
411 489 492 493 571
412 490 491 494 572
413 491 494 495 573
414 492 493 496 574
415 493 496 497 575
416 494 495 498 576
417 495 498 499 577
418 496 497 500 578
419 497 500 501 579
420 498 499 502 580
421 499 502 503 581
422 500 501 504 582
423 501 504 505 583
424 502 503 506 584
425 503 506 507 585
426 504 505 508 586
427 505 508 509 587
428 506 507 510 588
429 507 510 511 589
430 508 509 512 590
431 509 512 513 591
432 510 511 514 592
433 511 514 515 593
434 512 513 516 594
435 513 516 517 595
436 514 515 518 596
437 515 518 519 597
438 516 517 520 598
439 517 520 521 599
440 518 519 522 600
441 519 522 523 601
442 520 521 524 602
443 521 524 525 603
444 522 523 526 604
445 523 526 527 605
446 524 525 528 606
447 525 528 529 607
448 526 527 530 608
449 527 530 531 609
450 528 529 532 610
451 529 532 533 611
452 530 531 534 612
453 531 534 535 613
454 532 533 536 614
455 533 536 537 615
456 534 535 538 616
457 535 538 539 617
458 536 537 540 618
459 537 540 541 619
460 538 539 542 620
461 539 542 543 621
462 540 541 544 622
463 541 544 545 623
464 542 543 546 624
465 543 546 547 625
466 544 545 548 626
467 545 548 549 627
468 546 547 550 628
469 547 550 551 629
470 548 549 552 630
471 549 552 553 631
472 550 551 554 632
473 551 554 555 633
474 552 553 556 634
475 553 556 557 635
476 554 555 558 636
477 555 558 559 637
478 556 557 560 638
479 557 560 639
480 558 559 640
481 562 563 641
482 561 564 642
483 561 564 565 643
484 562 563 566 644
485 563 566 567 645
486 564 565 568 646
487 565 568 569 647
488 566 567 570 648
489 567 570 571 649
490 568 569 572 650
491 569 572 573 651
492 570 571 574 652
493 571 574 575 653
494 572 573 576 654
495 573 576 577 655
496 574 575 578 656
497 575 578 579 657
498 576 577 580 658
499 577 580 581 659
500 578 579 582 660
501 579 582 583 661
502 580 581 584 662
503 581 584 585 663
504 582 583 586 664
505 583 586 587 665
506 584 585 588 666
507 585 588 589 667
508 586 587 590 668
509 587 590 591 669
510 588 589 592 670
511 589 592 593 671
512 590 591 594 672
513 591 594 595 673
514 592 593 596 674
515 593 596 597 675
516 594 595 598 676
517 595 598 599 677
518 596 597 600 678
519 597 600 601 679
520 598 599 602 680
521 599 602 603 681
522 600 601 604 682
523 601 604 605 683
524 602 603 606 684
525 603 606 607 685
526 604 605 608 686
527 605 608 609 687
528 606 607 610 688
529 607 610 611 689
530 608 609 612 690
531 609 612 613 691
532 610 611 614 692
533 611 614 615 693
534 612 613 616 694
535 613 616 617 695
536 614 615 618 696
537 615 618 619 697
538 616 617 620 698
539 617 620 621 699
540 618 619 622 700
541 619 622 623 701
542 620 621 624 702
543 621 624 625 703
544 622 623 626 704
545 623 626 627 705
546 624 625 628 706
547 625 628 629 707
548 626 627 630 708
549 627 630 631 709
550 628 629 632 710
551 629 632 633 711
552 630 631 634 712
553 631 634 635 713
554 632 633 636 714
555 633 636 637 715
556 634 635 638 716
557 635 638 639 717
558 636 637 640 718
559 637 640 719
560 638 639 720
561 642 643 721
562 641 644 722
563 641 644 645 723
564 642 643 646 724
565 643 646 647 725
566 644 645 648 726
567 645 648 649 727
568 646 647 650 728
569 647 650 651 729
570 648 649 652 730
571 649 652 653 731
572 650 651 654 732
573 651 654 655 733
574 652 653 656 734
575 653 656 657 735
576 654 655 658 736
577 655 658 659 737
578 656 657 660 738
579 657 660 661 739
580 658 659 662 740
581 659 662 663 741
582 660 661 664 742
583 661 664 665 743
584 662 663 666 744
585 663 666 667 745
586 664 665 668 746
587 665 668 669 747
588 666 667 670 748
589 667 670 671 749
590 668 669 672 750
591 669 672 673 751
592 670 671 674 752
593 671 674 675 753
594 672 673 676 754
595 673 676 677 755
596 674 675 678 756
597 675 678 679 757
598 676 677 680 758
599 677 680 681 759
600 678 679 682 760
601 679 682 683 761
602 680 681 684 762
603 681 684 685 763
604 682 683 686 764
605 683 686 687 765
606 684 685 688 766
607 685 688 689 767
608 686 687 690 768
609 687 690 691 769
610 688 689 692 770
611 689 692 693 771
612 690 691 694 772
613 691 694 695 773
614 692 693 696 774
615 693 696 697 775
616 694 695 698 776
617 695 698 699 777
618 696 697 700 778
619 697 700 701 779
620 698 699 702 780
621 699 702 703 781
622 700 701 704 782
623 701 704 705 783
624 702 703 706 784
625 703 706 707 785
626 704 705 708 786
627 705 708 709 787
628 706 707 710 788
629 707 710 711 789
630 708 709 712 790
631 709 712 713 791
632 710 711 714 792
633 711 714 715 793
634 712 713 716 794
635 713 716 717 795
636 714 715 718 796
637 715 718 719 797
638 716 717 720 798
639 717 720 799
640 718 719 800
641 722 723 801
642 721 724 802
643 721 724 725 803
644 722 723 726 804
645 723 726 727 805
646 724 725 728 806
647 725 728 729 807
648 726 727 730 808
649 727 730 731 809
650 728 729 732 810
651 729 732 733 811
652 730 731 734 812
653 731 734 735 813
654 732 733 736 814
655 733 736 737 815
656 734 735 738 816
657 735 738 739 817
658 736 737 740 818
659 737 740 741 819
660 738 739 742 820
661 739 742 743 821
662 740 741 744 822
663 741 744 745 823
664 742 743 746 824
665 743 746 747 825
666 744 745 748 826
667 745 748 749 827
668 746 747 750 828
669 747 750 751 829
670 748 749 752 830
671 749 752 753 831
672 750 751 754 832
673 751 754 755 833
674 752 753 756 834
675 753 756 757 835
676 754 755 758 836
677 755 758 759 837
678 756 757 760 838
679 757 760 761 839
680 758 759 762 840
681 759 762 763 841
682 760 761 764 842
683 761 764 765 843
684 762 763 766 844
685 763 766 767 845
686 764 765 768 846
687 765 768 769 847
688 766 767 770 848
689 767 770 771 849
690 768 769 772 850
691 769 772 773 851
692 770 771 774 852
693 771 774 775 853
694 772 773 776 854
695 773 776 777 855
696 774 775 778 856
697 775 778 779 857
698 776 777 780 858
699 777 780 781 859
700 778 779 782 860
701 779 782 783 861
702 780 781 784 862
703 781 784 785 863
704 782 783 786 864
705 783 786 787 865
706 784 785 788 866
707 785 788 789 867
708 786 787 790 868
709 787 790 791 869
710 788 789 792 870
711 789 792 793 871
712 790 791 794 872
713 791 794 795 873
714 792 793 796 874
715 793 796 797 875
716 794 795 798 876
717 795 798 799 877
718 796 797 800 878
719 797 800 879
720 798 799 880
721 802 803 881
722 801 804 882
723 801 804 805 883
724 802 803 806 884
725 803 806 807 885
726 804 805 808 886
727 805 808 809 887
728 806 807 810 888
729 807 810 811 889
730 808 809 812 890
731 809 812 813 891
732 810 811 814 892
733 811 814 815 893
734 812 813 816 894
735 813 816 817 895
736 814 815 818 896
737 815 818 819 897
738 816 817 820 898
739 817 820 821 899
740 818 819 822 900
741 819 822 823 901
742 820 821 824 902
743 821 824 825 903
744 822 823 826 904
745 823 826 827 905
746 824 825 828 906
747 825 828 829 907
748 826 827 830 908
749 827 830 831 909
750 828 829 832 910
751 829 832 833 911
752 830 831 834 912
753 831 834 835 913
754 832 833 836 914
755 833 836 837 915
756 834 835 838 916
757 835 838 839 917
758 836 837 840 918
759 837 840 841 919
760 838 839 842 920
761 839 842 843 921
762 840 841 844 922
763 841 844 845 923
764 842 843 846 924
765 843 846 847 925
766 844 845 848 926
767 845 848 849 927
768 846 847 850 928
769 847 850 851 929
770 848 849 852 930
771 849 852 853 931
772 850 851 854 932
773 851 854 855 933
774 852 853 856 934
775 853 856 857 935
776 854 855 858 936
777 855 858 859 937
778 856 857 860 938
779 857 860 861 939
780 858 859 862 940
781 859 862 863 941
782 860 861 864 942
783 861 864 865 943
784 862 863 866 944
785 863 866 867 945
786 864 865 868 946
787 865 868 869 947
788 866 867 870 948
789 867 870 871 949
790 868 869 872 950
791 869 872 873 951
792 870 871 874 952
793 871 874 875 953
794 872 873 876 954
795 873 876 877 955
796 874 875 878 956
797 875 878 879 957
798 876 877 880 958
799 877 880 959
800 878 879 960
801 882 883 961
802 881 884 962
803 881 884 885 963
804 882 883 886 964
805 883 886 887 965
806 884 885 888 966
807 885 888 889 967
808 886 887 890 968
809 887 890 891 969
810 888 889 892 970
811 889 892 893 971
812 890 891 894 972
813 891 894 895 973
814 892 893 896 974
815 893 896 897 975
816 894 895 898 976
817 895 898 899 977
818 896 897 900 978
819 897 900 901 979
820 898 899 902 980
821 899 902 903 981
822 900 901 904 982
823 901 904 905 983
824 902 903 906 984
825 903 906 907 985
826 904 905 908 986
827 905 908 909 987
828 906 907 910 988
829 907 910 911 989
830 908 909 912 990
831 909 912 913 991
832 910 911 914 992
833 911 914 915 993
834 912 913 916 994
835 913 916 917 995
836 914 915 918 996
837 915 918 919 997
838 916 917 920 998
839 917 920 921 999
840 918 919 922 1000
841 919 922 923 1001
842 920 921 924 1002
843 921 924 925 1003
844 922 923 926 1004
845 923 926 927 1005
846 924 925 928 1006
847 925 928 929 1007
848 926 927 930 1008
849 927 930 931 1009
850 928 929 932 1010
851 929 932 933 1011
852 930 931 934 1012
853 931 934 935 1013
854 932 933 936 1014
855 933 936 937 1015
856 934 935 938 1016
857 935 938 939 1017
858 936 937 940 1018
859 937 940 941 1019
860 938 939 942 1020
861 939 942 943 1021
862 940 941 944 1022
863 941 944 945 1023
864 942 943 946 1024
865 943 946 947 1025
866 944 945 948 1026
867 945 948 949 1027
868 946 947 950 1028
869 947 950 951 1029
870 948 949 952 1030
871 949 952 953 1031
872 950 951 954 1032
873 951 954 955 1033
874 952 953 956 1034
875 953 956 957 1035
876 954 955 958 1036
877 955 958 959 1037
878 956 957 960 1038
879 957 960 1039
880 958 959 1040
881 962 963 1041
882 961 964 1042
883 961 964 965 1043
884 962 963 966 1044
885 963 966 967 1045
886 964 965 968 1046
887 965 968 969 1047
888 966 967 970 1048
889 967 970 971 1049
890 968 969 972 1050
891 969 972 973 1051
892 970 971 974 1052
893 971 974 975 1053
894 972 973 976 1054
895 973 976 977 1055
896 974 975 978 1056
897 975 978 979 1057
898 976 977 980 1058
899 977 980 981 1059
900 978 979 982 1060
901 979 982 983 1061
902 980 981 984 1062
903 981 984 985 1063
904 982 983 986 1064
905 983 986 987 1065
906 984 985 988 1066
907 985 988 989 1067
908 986 987 990 1068
909 987 990 991 1069
910 988 989 992 1070
911 989 992 993 1071
912 990 991 994 1072
913 991 994 995 1073
914 992 993 996 1074
915 993 996 997 1075
916 994 995 998 1076
917 995 998 999 1077
918 996 997 1000 1078
919 997 1000 1001 1079
920 998 999 1002 1080
921 999 1002 1003 1081
922 1000 1001 1004 1082
923 1001 1004 1005 1083
924 1002 1003 1006 1084
925 1003 1006 1007 1085
926 1004 1005 1008 1086
927 1005 1008 1009 1087
928 1006 1007 1010 1088
929 1007 1010 1011 1089
930 1008 1009 1012 1090
931 1009 1012 1013 1091
932 1010 1011 1014 1092
933 1011 1014 1015 1093
934 1012 1013 1016 1094
935 1013 1016 1017 1095
936 1014 1015 1018 1096
937 1015 1018 1019 1097
938 1016 1017 1020 1098
939 1017 1020 1021 1099
940 1018 1019 1022 1100
941 1019 1022 1023 1101
942 1020 1021 1024 1102
943 1021 1024 1025 1103
944 1022 1023 1026 1104
945 1023 1026 1027 1105
946 1024 1025 1028 1106
947 1025 1028 1029 1107
948 1026 1027 1030 1108
949 1027 1030 1031 1109
950 1028 1029 1032 1110
951 1029 1032 1033 1111
952 1030 1031 1034 1112
953 1031 1034 1035 1113
954 1032 1033 1036 1114
955 1033 1036 1037 1115
956 1034 1035 1038 1116
957 1035 1038 1039 1117
958 1036 1037 1040 1118
959 1037 1040 1119
960 1038 1039 1120
961 1042 1043 1121
962 1041 1044 1122
963 1041 1044 1045 1123
964 1042 1043 1046 1124
965 1043 1046 1047 1125
966 1044 1045 1048 1126
967 1045 1048 1049 1127
968 1046 1047 1050 1128
969 1047 1050 1051 1129
970 1048 1049 1052 1130
971 1049 1052 1053 1131
972 1050 1051 1054 1132
973 1051 1054 1055 1133
974 1052 1053 1056 1134
975 1053 1056 1057 1135
976 1054 1055 1058 1136
977 1055 1058 1059 1137
978 1056 1057 1060 1138
979 1057 1060 1061 1139
980 1058 1059 1062 1140
981 1059 1062 1063 1141
982 1060 1061 1064 1142
983 1061 1064 1065 1143
984 1062 1063 1066 1144
985 1063 1066 1067 1145
986 1064 1065 1068 1146
987 1065 1068 1069 1147
988 1066 1067 1070 1148
989 1067 1070 1071 1149
990 1068 1069 1072 1150
991 1069 1072 1073 1151
992 1070 1071 1074 1152
993 1071 1074 1075 1153
994 1072 1073 1076 1154
995 1073 1076 1077 1155
996 1074 1075 1078 1156
997 1075 1078 1079 1157
998 1076 1077 1080 1158
999 1077 1080 1081 1159
1000 1078 1079 1082 1160
1001 1079 1082 1083 1161
1002 1080 1081 1084 1162
1003 1081 1084 1085 1163
1004 1082 1083 1086 1164
1005 1083 1086 1087 1165
1006 1084 1085 1088 1166
1007 1085 1088 1089 1167
1008 1086 1087 1090 1168
1009 1087 1090 1091 1169
1010 1088 1089 1092 1170
1011 1089 1092 1093 1171
1012 1090 1091 1094 1172
1013 1091 1094 1095 1173
1014 1092 1093 1096 1174
1015 1093 1096 1097 1175
1016 1094 1095 1098 1176
1017 1095 1098 1099 1177
1018 1096 1097 1100 1178
1019 1097 1100 1101 1179
1020 1098 1099 1102 1180
1021 1099 1102 1103 1181
1022 1100 1101 1104 1182
1023 1101 1104 1105 1183
1024 1102 1103 1106 1184
1025 1103 1106 1107 1185
1026 1104 1105 1108 1186
1027 1105 1108 1109 1187
1028 1106 1107 1110 1188
1029 1107 1110 1111 1189
1030 1108 1109 1112 1190
1031 1109 1112 1113 1191
1032 1110 1111 1114 1192
1033 1111 1114 1115 1193
1034 1112 1113 1116 1194
1035 1113 1116 1117 1195
1036 1114 1115 1118 1196
1037 1115 1118 1119 1197
1038 1116 1117 1120 1198
1039 1117 1120 1199
1040 1118 1119 1200
1041 1122 1123 1201
1042 1121 1124 1202
1043 1121 1124 1125 1203
1044 1122 1123 1126 1204
1045 1123 1126 1127 1205
1046 1124 1125 1128 1206
1047 1125 1128 1129 1207
1048 1126 1127 1130 1208
1049 1127 1130 1131 1209
1050 1128 1129 1132 1210
1051 1129 1132 1133 1211
1052 1130 1131 1134 1212
1053 1131 1134 1135 1213
1054 1132 1133 1136 1214
1055 1133 1136 1137 1215
1056 1134 1135 1138 1216
1057 1135 1138 1139 1217
1058 1136 1137 1140 1218
1059 1137 1140 1141 1219
1060 1138 1139 1142 1220
1061 1139 1142 1143 1221
1062 1140 1141 1144 1222
1063 1141 1144 1145 1223
1064 1142 1143 1146 1224
1065 1143 1146 1147 1225
1066 1144 1145 1148 1226
1067 1145 1148 1149 1227
1068 1146 1147 1150 1228
1069 1147 1150 1151 1229
1070 1148 1149 1152 1230
1071 1149 1152 1153 1231
1072 1150 1151 1154 1232
1073 1151 1154 1155 1233
1074 1152 1153 1156 1234
1075 1153 1156 1157 1235
1076 1154 1155 1158 1236
1077 1155 1158 1159 1237
1078 1156 1157 1160 1238
1079 1157 1160 1161 1239
1080 1158 1159 1162 1240
1081 1159 1162 1163 1241
1082 1160 1161 1164 1242
1083 1161 1164 1165 1243
1084 1162 1163 1166 1244
1085 1163 1166 1167 1245
1086 1164 1165 1168 1246
1087 1165 1168 1169 1247
1088 1166 1167 1170 1248
1089 1167 1170 1171 1249
1090 1168 1169 1172 1250
1091 1169 1172 1173 1251
1092 1170 1171 1174 1252
1093 1171 1174 1175 1253
1094 1172 1173 1176 1254
1095 1173 1176 1177 1255
1096 1174 1175 1178 1256
1097 1175 1178 1179 1257
1098 1176 1177 1180 1258
1099 1177 1180 1181 1259
1100 1178 1179 1182 1260
1101 1179 1182 1183 1261
1102 1180 1181 1184 1262
1103 1181 1184 1185 1263
1104 1182 1183 1186 1264
1105 1183 1186 1187 1265
1106 1184 1185 1188 1266
1107 1185 1188 1189 1267
1108 1186 1187 1190 1268
1109 1187 1190 1191 1269
1110 1188 1189 1192 1270
1111 1189 1192 1193 1271
1112 1190 1191 1194 1272
1113 1191 1194 1195 1273
1114 1192 1193 1196 1274
1115 1193 1196 1197 1275
1116 1194 1195 1198 1276
1117 1195 1198 1199 1277
1118 1196 1197 1200 1278
1119 1197 1200 1279
1120 1198 1199 1280
1121 1202 1203 1281
1122 1201 1204 1282
1123 1201 1204 1205 1283
1124 1202 1203 1206 1284
1125 1203 1206 1207 1285
1126 1204 1205 1208 1286
1127 1205 1208 1209 1287
1128 1206 1207 1210 1288
1129 1207 1210 1211 1289
1130 1208 1209 1212 1290
1131 1209 1212 1213 1291
1132 1210 1211 1214 1292
1133 1211 1214 1215 1293
1134 1212 1213 1216 1294
1135 1213 1216 1217 1295
1136 1214 1215 1218 1296
1137 1215 1218 1219 1297
1138 1216 1217 1220 1298
1139 1217 1220 1221 1299
1140 1218 1219 1222 1300
1141 1219 1222 1223 1301
1142 1220 1221 1224 1302
1143 1221 1224 1225 1303
1144 1222 1223 1226 1304
1145 1223 1226 1227 1305
1146 1224 1225 1228 1306
1147 1225 1228 1229 1307
1148 1226 1227 1230 1308
1149 1227 1230 1231 1309
1150 1228 1229 1232 1310
1151 1229 1232 1233 1311
1152 1230 1231 1234 1312
1153 1231 1234 1235 1313
1154 1232 1233 1236 1314
1155 1233 1236 1237 1315
1156 1234 1235 1238 1316
1157 1235 1238 1239 1317
1158 1236 1237 1240 1318
1159 1237 1240 1241 1319
1160 1238 1239 1242 1320
1161 1239 1242 1243 1321
1162 1240 1241 1244 1322
1163 1241 1244 1245 1323
1164 1242 1243 1246 1324
1165 1243 1246 1247 1325
1166 1244 1245 1248 1326
1167 1245 1248 1249 1327
1168 1246 1247 1250 1328
1169 1247 1250 1251 1329
1170 1248 1249 1252 1330
1171 1249 1252 1253 1331
1172 1250 1251 1254 1332
1173 1251 1254 1255 1333
1174 1252 1253 1256 1334
1175 1253 1256 1257 1335
1176 1254 1255 1258 1336
1177 1255 1258 1259 1337
1178 1256 1257 1260 1338
1179 1257 1260 1261 1339
1180 1258 1259 1262 1340
1181 1259 1262 1263 1341
1182 1260 1261 1264 1342
1183 1261 1264 1265 1343
1184 1262 1263 1266 1344
1185 1263 1266 1267 1345
1186 1264 1265 1268 1346
1187 1265 1268 1269 1347
1188 1266 1267 1270 1348
1189 1267 1270 1271 1349
1190 1268 1269 1272 1350
1191 1269 1272 1273 1351
1192 1270 1271 1274 1352
1193 1271 1274 1275 1353
1194 1272 1273 1276 1354
1195 1273 1276 1277 1355
1196 1274 1275 1278 1356
1197 1275 1278 1279 1357
1198 1276 1277 1280 1358
1199 1277 1280 1359
1200 1278 1279 1360
1201 1282 1283 1361
1202 1281 1284 1362
1203 1281 1284 1285 1363
1204 1282 1283 1286 1364
1205 1283 1286 1287 1365
1206 1284 1285 1288 1366
1207 1285 1288 1289 1367
1208 1286 1287 1290 1368
1209 1287 1290 1291 1369
1210 1288 1289 1292 1370
1211 1289 1292 1293 1371
1212 1290 1291 1294 1372
1213 1291 1294 1295 1373
1214 1292 1293 1296 1374
1215 1293 1296 1297 1375
1216 1294 1295 1298 1376
1217 1295 1298 1299 1377
1218 1296 1297 1300 1378
1219 1297 1300 1301 1379
1220 1298 1299 1302 1380
1221 1299 1302 1303 1381
1222 1300 1301 1304 1382
1223 1301 1304 1305 1383
1224 1302 1303 1306 1384
1225 1303 1306 1307 1385
1226 1304 1305 1308 1386
1227 1305 1308 1309 1387
1228 1306 1307 1310 1388
1229 1307 1310 1311 1389
1230 1308 1309 1312 1390
1231 1309 1312 1313 1391
1232 1310 1311 1314 1392
1233 1311 1314 1315 1393
1234 1312 1313 1316 1394
1235 1313 1316 1317 1395
1236 1314 1315 1318 1396
1237 1315 1318 1319 1397
1238 1316 1317 1320 1398
1239 1317 1320 1321 1399
1240 1318 1319 1322 1400
1241 1319 1322 1323 1401
1242 1320 1321 1324 1402
1243 1321 1324 1325 1403
1244 1322 1323 1326 1404
1245 1323 1326 1327 1405
1246 1324 1325 1328 1406
1247 1325 1328 1329 1407
1248 1326 1327 1330 1408
1249 1327 1330 1331 1409
1250 1328 1329 1332 1410
1251 1329 1332 1333 1411
1252 1330 1331 1334 1412
1253 1331 1334 1335 1413
1254 1332 1333 1336 1414
1255 1333 1336 1337 1415
1256 1334 1335 1338 1416
1257 1335 1338 1339 1417
1258 1336 1337 1340 1418
1259 1337 1340 1341 1419
1260 1338 1339 1342 1420
1261 1339 1342 1343 1421
1262 1340 1341 1344 1422
1263 1341 1344 1345 1423
1264 1342 1343 1346 1424
1265 1343 1346 1347 1425
1266 1344 1345 1348 1426
1267 1345 1348 1349 1427
1268 1346 1347 1350 1428
1269 1347 1350 1351 1429
1270 1348 1349 1352 1430
1271 1349 1352 1353 1431
1272 1350 1351 1354 1432
1273 1351 1354 1355 1433
1274 1352 1353 1356 1434
1275 1353 1356 1357 1435
1276 1354 1355 1358 1436
1277 1355 1358 1359 1437
1278 1356 1357 1360 1438
1279 1357 1360 1439
1280 1358 1359 1440
1281 1362 1363 1441
1282 1361 1364 1442
1283 1361 1364 1365 1443
1284 1362 1363 1366 1444
1285 1363 1366 1367 1445
1286 1364 1365 1368 1446
1287 1365 1368 1369 1447
1288 1366 1367 1370 1448
1289 1367 1370 1371 1449
1290 1368 1369 1372 1450
1291 1369 1372 1373 1451
1292 1370 1371 1374 1452
1293 1371 1374 1375 1453
1294 1372 1373 1376 1454
1295 1373 1376 1377 1455
1296 1374 1375 1378 1456
1297 1375 1378 1379 1457
1298 1376 1377 1380 1458
1299 1377 1380 1381 1459
1300 1378 1379 1382 1460
1301 1379 1382 1383 1461
1302 1380 1381 1384 1462
1303 1381 1384 1385 1463
1304 1382 1383 1386 1464
1305 1383 1386 1387 1465
1306 1384 1385 1388 1466
1307 1385 1388 1389 1467
1308 1386 1387 1390 1468
1309 1387 1390 1391 1469
1310 1388 1389 1392 1470
1311 1389 1392 1393 1471
1312 1390 1391 1394 1472
1313 1391 1394 1395 1473
1314 1392 1393 1396 1474
1315 1393 1396 1397 1475
1316 1394 1395 1398 1476
1317 1395 1398 1399 1477
1318 1396 1397 1400 1478
1319 1397 1400 1401 1479
1320 1398 1399 1402 1480
1321 1399 1402 1403 1481
1322 1400 1401 1404 1482
1323 1401 1404 1405 1483
1324 1402 1403 1406 1484
1325 1403 1406 1407 1485
1326 1404 1405 1408 1486
1327 1405 1408 1409 1487
1328 1406 1407 1410 1488
1329 1407 1410 1411 1489
1330 1408 1409 1412 1490
1331 1409 1412 1413 1491
1332 1410 1411 1414 1492
1333 1411 1414 1415 1493
1334 1412 1413 1416 1494
1335 1413 1416 1417 1495
1336 1414 1415 1418 1496
1337 1415 1418 1419 1497
1338 1416 1417 1420 1498
1339 1417 1420 1421 1499
1340 1418 1419 1422 1500
1341 1419 1422 1423 1501
1342 1420 1421 1424 1502
1343 1421 1424 1425 1503
1344 1422 1423 1426 1504
1345 1423 1426 1427 1505
1346 1424 1425 1428 1506
1347 1425 1428 1429 1507
1348 1426 1427 1430 1508
1349 1427 1430 1431 1509
1350 1428 1429 1432 1510
1351 1429 1432 1433 1511
1352 1430 1431 1434 1512
1353 1431 1434 1435 1513
1354 1432 1433 1436 1514
1355 1433 1436 1437 1515
1356 1434 1435 1438 1516
1357 1435 1438 1439 1517
1358 1436 1437 1440 1518
1359 1437 1440 1519
1360 1438 1439 1520
1361 1442 1443 1521
1362 1441 1444 1522
1363 1441 1444 1445 1523
1364 1442 1443 1446 1524
1365 1443 1446 1447 1525
1366 1444 1445 1448 1526
1367 1445 1448 1449 1527
1368 1446 1447 1450 1528
1369 1447 1450 1451 1529
1370 1448 1449 1452 1530
1371 1449 1452 1453 1531
1372 1450 1451 1454 1532
1373 1451 1454 1455 1533
1374 1452 1453 1456 1534
1375 1453 1456 1457 1535
1376 1454 1455 1458 1536
1377 1455 1458 1459 1537
1378 1456 1457 1460 1538
1379 1457 1460 1461 1539
1380 1458 1459 1462 1540
1381 1459 1462 1463 1541
1382 1460 1461 1464 1542
1383 1461 1464 1465 1543
1384 1462 1463 1466 1544
1385 1463 1466 1467 1545
1386 1464 1465 1468 1546
1387 1465 1468 1469 1547
1388 1466 1467 1470 1548
1389 1467 1470 1471 1549
1390 1468 1469 1472 1550
1391 1469 1472 1473 1551
1392 1470 1471 1474 1552
1393 1471 1474 1475 1553
1394 1472 1473 1476 1554
1395 1473 1476 1477 1555
1396 1474 1475 1478 1556
1397 1475 1478 1479 1557
1398 1476 1477 1480 1558
1399 1477 1480 1481 1559
1400 1478 1479 1482 1560
1401 1479 1482 1483 1561
1402 1480 1481 1484 1562
1403 1481 1484 1485 1563
1404 1482 1483 1486 1564
1405 1483 1486 1487 1565
1406 1484 1485 1488 1566
1407 1485 1488 1489 1567
1408 1486 1487 1490 1568
1409 1487 1490 1491 1569
1410 1488 1489 1492 1570
1411 1489 1492 1493 1571
1412 1490 1491 1494 1572
1413 1491 1494 1495 1573
1414 1492 1493 1496 1574
1415 1493 1496 1497 1575
1416 1494 1495 1498 1576
1417 1495 1498 1499 1577
1418 1496 1497 1500 1578
1419 1497 1500 1501 1579
1420 1498 1499 1502 1580
1421 1499 1502 1503 1581
1422 1500 1501 1504 1582
1423 1501 1504 1505 1583
1424 1502 1503 1506 1584
1425 1503 1506 1507 1585
1426 1504 1505 1508 1586
1427 1505 1508 1509 1587
1428 1506 1507 1510 1588
1429 1507 1510 1511 1589
1430 1508 1509 1512 1590
1431 1509 1512 1513 1591
1432 1510 1511 1514 1592
1433 1511 1514 1515 1593
1434 1512 1513 1516 1594
1435 1513 1516 1517 1595
1436 1514 1515 1518 1596
1437 1515 1518 1519 1597
1438 1516 1517 1520 1598
1439 1517 1520 1599
1440 1518 1519 1600
1441 1522 1523 1601
1442 1521 1524 1602
1443 1521 1524 1525 1603
1444 1522 1523 1526 1604
1445 1523 1526 1527 1605
1446 1524 1525 1528 1606
1447 1525 1528 1529 1607
1448 1526 1527 1530 1608
1449 1527 1530 1531 1609
1450 1528 1529 1532 1610
1451 1529 1532 1533 1611
1452 1530 1531 1534 1612
1453 1531 1534 1535 1613
1454 1532 1533 1536 1614
1455 1533 1536 1537 1615
1456 1534 1535 1538 1616
1457 1535 1538 1539 1617
1458 1536 1537 1540 1618
1459 1537 1540 1541 1619
1460 1538 1539 1542 1620
1461 1539 1542 1543 1621
1462 1540 1541 1544 1622
1463 1541 1544 1545 1623
1464 1542 1543 1546 1624
1465 1543 1546 1547 1625
1466 1544 1545 1548 1626
1467 1545 1548 1549 1627
1468 1546 1547 1550 1628
1469 1547 1550 1551 1629
1470 1548 1549 1552 1630
1471 1549 1552 1553 1631
1472 1550 1551 1554 1632
1473 1551 1554 1555 1633
1474 1552 1553 1556 1634
1475 1553 1556 1557 1635
1476 1554 1555 1558 1636
1477 1555 1558 1559 1637
1478 1556 1557 1560 1638
1479 1557 1560 1561 1639
1480 1558 1559 1562 1640
1481 1559 1562 1563 1641
1482 1560 1561 1564 1642
1483 1561 1564 1565 1643
1484 1562 1563 1566 1644
1485 1563 1566 1567 1645
1486 1564 1565 1568 1646
1487 1565 1568 1569 1647
1488 1566 1567 1570 1648
1489 1567 1570 1571 1649
1490 1568 1569 1572 1650
1491 1569 1572 1573 1651
1492 1570 1571 1574 1652
1493 1571 1574 1575 1653
1494 1572 1573 1576 1654
1495 1573 1576 1577 1655
1496 1574 1575 1578 1656
1497 1575 1578 1579 1657
1498 1576 1577 1580 1658
1499 1577 1580 1581 1659
1500 1578 1579 1582 1660
1501 1579 1582 1583 1661
1502 1580 1581 1584 1662
1503 1581 1584 1585 1663
1504 1582 1583 1586 1664
1505 1583 1586 1587 1665
1506 1584 1585 1588 1666
1507 1585 1588 1589 1667
1508 1586 1587 1590 1668
1509 1587 1590 1591 1669
1510 1588 1589 1592 1670
1511 1589 1592 1593 1671
1512 1590 1591 1594 1672
1513 1591 1594 1595 1673
1514 1592 1593 1596 1674
1515 1593 1596 1597 1675
1516 1594 1595 1598 1676
1517 1595 1598 1599 1677
1518 1596 1597 1600 1678
1519 1597 1600 1679
1520 1598 1599 1680
1521 1602 1603 1681
1522 1601 1604 1682
1523 1601 1604 1605 1683
1524 1602 1603 1606 1684
1525 1603 1606 1607 1685
1526 1604 1605 1608 1686
1527 1605 1608 1609 1687
1528 1606 1607 1610 1688
1529 1607 1610 1611 1689
1530 1608 1609 1612 1690
1531 1609 1612 1613 1691
1532 1610 1611 1614 1692
1533 1611 1614 1615 1693
1534 1612 1613 1616 1694
1535 1613 1616 1617 1695
1536 1614 1615 1618 1696
1537 1615 1618 1619 1697
1538 1616 1617 1620 1698
1539 1617 1620 1621 1699
1540 1618 1619 1622 1700
1541 1619 1622 1623 1701
1542 1620 1621 1624 1702
1543 1621 1624 1625 1703
1544 1622 1623 1626 1704
1545 1623 1626 1627 1705
1546 1624 1625 1628 1706
1547 1625 1628 1629 1707
1548 1626 1627 1630 1708
1549 1627 1630 1631 1709
1550 1628 1629 1632 1710
1551 1629 1632 1633 1711
1552 1630 1631 1634 1712
1553 1631 1634 1635 1713
1554 1632 1633 1636 1714
1555 1633 1636 1637 1715
1556 1634 1635 1638 1716
1557 1635 1638 1639 1717
1558 1636 1637 1640 1718
1559 1637 1640 1641 1719
1560 1638 1639 1642 1720
1561 1639 1642 1643 1721
1562 1640 1641 1644 1722
1563 1641 1644 1645 1723
1564 1642 1643 1646 1724
1565 1643 1646 1647 1725
1566 1644 1645 1648 1726
1567 1645 1648 1649 1727
1568 1646 1647 1650 1728
1569 1647 1650 1651 1729
1570 1648 1649 1652 1730
1571 1649 1652 1653 1731
1572 1650 1651 1654 1732
1573 1651 1654 1655 1733
1574 1652 1653 1656 1734
1575 1653 1656 1657 1735
1576 1654 1655 1658 1736
1577 1655 1658 1659 1737
1578 1656 1657 1660 1738
1579 1657 1660 1661 1739
1580 1658 1659 1662 1740
1581 1659 1662 1663 1741
1582 1660 1661 1664 1742
1583 1661 1664 1665 1743
1584 1662 1663 1666 1744
1585 1663 1666 1667 1745
1586 1664 1665 1668 1746
1587 1665 1668 1669 1747
1588 1666 1667 1670 1748
1589 1667 1670 1671 1749
1590 1668 1669 1672 1750
1591 1669 1672 1673 1751
1592 1670 1671 1674 1752
1593 1671 1674 1675 1753
1594 1672 1673 1676 1754
1595 1673 1676 1677 1755
1596 1674 1675 1678 1756
1597 1675 1678 1679 1757
1598 1676 1677 1680 1758
1599 1677 1680 1759
1600 1678 1679 1760
1601 1682 1683 1761
1602 1681 1684 1762
1603 1681 1684 1685 1763
1604 1682 1683 1686 1764
1605 1683 1686 1687 1765
1606 1684 1685 1688 1766
1607 1685 1688 1689 1767
1608 1686 1687 1690 1768
1609 1687 1690 1691 1769
1610 1688 1689 1692 1770
1611 1689 1692 1693 1771
1612 1690 1691 1694 1772
1613 1691 1694 1695 1773
1614 1692 1693 1696 1774
1615 1693 1696 1697 1775
1616 1694 1695 1698 1776
1617 1695 1698 1699 1777
1618 1696 1697 1700 1778
1619 1697 1700 1701 1779
1620 1698 1699 1702 1780
1621 1699 1702 1703 1781
1622 1700 1701 1704 1782
1623 1701 1704 1705 1783
1624 1702 1703 1706 1784
1625 1703 1706 1707 1785
1626 1704 1705 1708 1786
1627 1705 1708 1709 1787
1628 1706 1707 1710 1788
1629 1707 1710 1711 1789
1630 1708 1709 1712 1790
1631 1709 1712 1713 1791
1632 1710 1711 1714 1792
1633 1711 1714 1715 1793
1634 1712 1713 1716 1794
1635 1713 1716 1717 1795
1636 1714 1715 1718 1796
1637 1715 1718 1719 1797
1638 1716 1717 1720 1798
1639 1717 1720 1721 1799
1640 1718 1719 1722 1800
1641 1719 1722 1723 1801
1642 1720 1721 1724 1802
1643 1721 1724 1725 1803
1644 1722 1723 1726 1804
1645 1723 1726 1727 1805
1646 1724 1725 1728 1806
1647 1725 1728 1729 1807
1648 1726 1727 1730 1808
1649 1727 1730 1731 1809
1650 1728 1729 1732 1810
1651 1729 1732 1733 1811
1652 1730 1731 1734 1812
1653 1731 1734 1735 1813
1654 1732 1733 1736 1814
1655 1733 1736 1737 1815
1656 1734 1735 1738 1816
1657 1735 1738 1739 1817
1658 1736 1737 1740 1818
1659 1737 1740 1741 1819
1660 1738 1739 1742 1820
1661 1739 1742 1743 1821
1662 1740 1741 1744 1822
1663 1741 1744 1745 1823
1664 1742 1743 1746 1824
1665 1743 1746 1747 1825
1666 1744 1745 1748 1826
1667 1745 1748 1749 1827
1668 1746 1747 1750 1828
1669 1747 1750 1751 1829
1670 1748 1749 1752 1830
1671 1749 1752 1753 1831
1672 1750 1751 1754 1832
1673 1751 1754 1755 1833
1674 1752 1753 1756 1834
1675 1753 1756 1757 1835
1676 1754 1755 1758 1836
1677 1755 1758 1759 1837
1678 1756 1757 1760 1838
1679 1757 1760 1839
1680 1758 1759 1840
1681 1762 1763 1841
1682 1761 1764 1842
1683 1761 1764 1765 1843
1684 1762 1763 1766 1844
1685 1763 1766 1767 1845
1686 1764 1765 1768 1846
1687 1765 1768 1769 1847
1688 1766 1767 1770 1848
1689 1767 1770 1771 1849
1690 1768 1769 1772 1850
1691 1769 1772 1773 1851
1692 1770 1771 1774 1852
1693 1771 1774 1775 1853
1694 1772 1773 1776 1854
1695 1773 1776 1777 1855
1696 1774 1775 1778 1856
1697 1775 1778 1779 1857
1698 1776 1777 1780 1858
1699 1777 1780 1781 1859
1700 1778 1779 1782 1860
1701 1779 1782 1783 1861
1702 1780 1781 1784 1862
1703 1781 1784 1785 1863
1704 1782 1783 1786 1864
1705 1783 1786 1787 1865
1706 1784 1785 1788 1866
1707 1785 1788 1789 1867
1708 1786 1787 1790 1868
1709 1787 1790 1791 1869
1710 1788 1789 1792 1870
1711 1789 1792 1793 1871
1712 1790 1791 1794 1872
1713 1791 1794 1795 1873
1714 1792 1793 1796 1874
1715 1793 1796 1797 1875
1716 1794 1795 1798 1876
1717 1795 1798 1799 1877
1718 1796 1797 1800 1878
1719 1797 1800 1801 1879
1720 1798 1799 1802 1880
1721 1799 1802 1803 1881
1722 1800 1801 1804 1882
1723 1801 1804 1805 1883
1724 1802 1803 1806 1884
1725 1803 1806 1807 1885
1726 1804 1805 1808 1886
1727 1805 1808 1809 1887
1728 1806 1807 1810 1888
1729 1807 1810 1811 1889
1730 1808 1809 1812 1890
1731 1809 1812 1813 1891
1732 1810 1811 1814 1892
1733 1811 1814 1815 1893
1734 1812 1813 1816 1894
1735 1813 1816 1817 1895
1736 1814 1815 1818 1896
1737 1815 1818 1819 1897
1738 1816 1817 1820 1898
1739 1817 1820 1821 1899
1740 1818 1819 1822 1900
1741 1819 1822 1823 1901
1742 1820 1821 1824 1902
1743 1821 1824 1825 1903
1744 1822 1823 1826 1904
1745 1823 1826 1827 1905
1746 1824 1825 1828 1906
1747 1825 1828 1829 1907
1748 1826 1827 1830 1908
1749 1827 1830 1831 1909
1750 1828 1829 1832 1910
1751 1829 1832 1833 1911
1752 1830 1831 1834 1912
1753 1831 1834 1835 1913
1754 1832 1833 1836 1914
1755 1833 1836 1837 1915
1756 1834 1835 1838 1916
1757 1835 1838 1839 1917
1758 1836 1837 1840 1918
1759 1837 1840 1919
1760 1838 1839 1920
1761 1842 1843 1921
1762 1841 1844 1922
1763 1841 1844 1845 1923
1764 1842 1843 1846 1924
1765 1843 1846 1847 1925
1766 1844 1845 1848 1926
1767 1845 1848 1849 1927
1768 1846 1847 1850 1928
1769 1847 1850 1851 1929
1770 1848 1849 1852 1930
1771 1849 1852 1853 1931
1772 1850 1851 1854 1932
1773 1851 1854 1855 1933
1774 1852 1853 1856 1934
1775 1853 1856 1857 1935
1776 1854 1855 1858 1936
1777 1855 1858 1859 1937
1778 1856 1857 1860 1938
1779 1857 1860 1861 1939
1780 1858 1859 1862 1940
1781 1859 1862 1863 1941
1782 1860 1861 1864 1942
1783 1861 1864 1865 1943
1784 1862 1863 1866 1944
1785 1863 1866 1867 1945
1786 1864 1865 1868 1946
1787 1865 1868 1869 1947
1788 1866 1867 1870 1948
1789 1867 1870 1871 1949
1790 1868 1869 1872 1950
1791 1869 1872 1873 1951
1792 1870 1871 1874 1952
1793 1871 1874 1875 1953
1794 1872 1873 1876 1954
1795 1873 1876 1877 1955
1796 1874 1875 1878 1956
1797 1875 1878 1879 1957
1798 1876 1877 1880 1958
1799 1877 1880 1881 1959
1800 1878 1879 1882 1960
1801 1879 1882 1883 1961
1802 1880 1881 1884 1962
1803 1881 1884 1885 1963
1804 1882 1883 1886 1964
1805 1883 1886 1887 1965
1806 1884 1885 1888 1966
1807 1885 1888 1889 1967
1808 1886 1887 1890 1968
1809 1887 1890 1891 1969
1810 1888 1889 1892 1970
1811 1889 1892 1893 1971
1812 1890 1891 1894 1972
1813 1891 1894 1895 1973
1814 1892 1893 1896 1974
1815 1893 1896 1897 1975
1816 1894 1895 1898 1976
1817 1895 1898 1899 1977
1818 1896 1897 1900 1978
1819 1897 1900 1901 1979
1820 1898 1899 1902 1980
1821 1899 1902 1903 1981
1822 1900 1901 1904 1982
1823 1901 1904 1905 1983
1824 1902 1903 1906 1984
1825 1903 1906 1907 1985
1826 1904 1905 1908 1986
1827 1905 1908 1909 1987
1828 1906 1907 1910 1988
1829 1907 1910 1911 1989
1830 1908 1909 1912 1990
1831 1909 1912 1913 1991
1832 1910 1911 1914 1992
1833 1911 1914 1915 1993
1834 1912 1913 1916 1994
1835 1913 1916 1917 1995
1836 1914 1915 1918 1996
1837 1915 1918 1919 1997
1838 1916 1917 1920 1998
1839 1917 1920 1999
1840 1918 1919 2000
1841 1922 1923 2001
1842 1921 1924 2002
1843 1921 1924 1925 2003
1844 1922 1923 1926 2004
1845 1923 1926 1927 2005
1846 1924 1925 1928 2006
1847 1925 1928 1929 2007
1848 1926 1927 1930 2008
1849 1927 1930 1931 2009
1850 1928 1929 1932 2010
1851 1929 1932 1933 2011
1852 1930 1931 1934 2012
1853 1931 1934 1935 2013
1854 1932 1933 1936 2014
1855 1933 1936 1937 2015
1856 1934 1935 1938 2016
1857 1935 1938 1939 2017
1858 1936 1937 1940 2018
1859 1937 1940 1941 2019
1860 1938 1939 1942 2020
1861 1939 1942 1943 2021
1862 1940 1941 1944 2022
1863 1941 1944 1945 2023
1864 1942 1943 1946 2024
1865 1943 1946 1947 2025
1866 1944 1945 1948 2026
1867 1945 1948 1949 2027
1868 1946 1947 1950 2028
1869 1947 1950 1951 2029
1870 1948 1949 1952 2030
1871 1949 1952 1953 2031
1872 1950 1951 1954 2032
1873 1951 1954 1955 2033
1874 1952 1953 1956 2034
1875 1953 1956 1957 2035
1876 1954 1955 1958 2036
1877 1955 1958 1959 2037
1878 1956 1957 1960 2038
1879 1957 1960 1961 2039
1880 1958 1959 1962 2040
1881 1959 1962 1963 2041
1882 1960 1961 1964 2042
1883 1961 1964 1965 2043
1884 1962 1963 1966 2044
1885 1963 1966 1967 2045
1886 1964 1965 1968 2046
1887 1965 1968 1969 2047
1888 1966 1967 1970 2048
1889 1967 1970 1971 2049
1890 1968 1969 1972 2050
1891 1969 1972 1973 2051
1892 1970 1971 1974 2052
1893 1971 1974 1975 2053
1894 1972 1973 1976 2054
1895 1973 1976 1977 2055
1896 1974 1975 1978 2056
1897 1975 1978 1979 2057
1898 1976 1977 1980 2058
1899 1977 1980 1981 2059
1900 1978 1979 1982 2060
1901 1979 1982 1983 2061
1902 1980 1981 1984 2062
1903 1981 1984 1985 2063
1904 1982 1983 1986 2064
1905 1983 1986 1987 2065
1906 1984 1985 1988 2066
1907 1985 1988 1989 2067
1908 1986 1987 1990 2068
1909 1987 1990 1991 2069
1910 1988 1989 1992 2070
1911 1989 1992 1993 2071
1912 1990 1991 1994 2072
1913 1991 1994 1995 2073
1914 1992 1993 1996 2074
1915 1993 1996 1997 2075
1916 1994 1995 1998 2076
1917 1995 1998 1999 2077
1918 1996 1997 2000 2078
1919 1997 2000 2079
1920 1998 1999 2080
1921 2002 2003 2081
1922 2001 2004 2082
1923 2001 2004 2005 2083
1924 2002 2003 2006 2084
1925 2003 2006 2007 2085
1926 2004 2005 2008 2086
1927 2005 2008 2009 2087
1928 2006 2007 2010 2088
1929 2007 2010 2011 2089
1930 2008 2009 2012 2090
1931 2009 2012 2013 2091
1932 2010 2011 2014 2092
1933 2011 2014 2015 2093
1934 2012 2013 2016 2094
1935 2013 2016 2017 2095
1936 2014 2015 2018 2096
1937 2015 2018 2019 2097
1938 2016 2017 2020 2098
1939 2017 2020 2021 2099
1940 2018 2019 2022 2100
1941 2019 2022 2023 2101
1942 2020 2021 2024 2102
1943 2021 2024 2025 2103
1944 2022 2023 2026 2104
1945 2023 2026 2027 2105
1946 2024 2025 2028 2106
1947 2025 2028 2029 2107
1948 2026 2027 2030 2108
1949 2027 2030 2031 2109
1950 2028 2029 2032 2110
1951 2029 2032 2033 2111
1952 2030 2031 2034 2112
1953 2031 2034 2035 2113
1954 2032 2033 2036 2114
1955 2033 2036 2037 2115
1956 2034 2035 2038 2116
1957 2035 2038 2039 2117
1958 2036 2037 2040 2118
1959 2037 2040 2041 2119
1960 2038 2039 2042 2120
1961 2039 2042 2043 2121
1962 2040 2041 2044 2122
1963 2041 2044 2045 2123
1964 2042 2043 2046 2124
1965 2043 2046 2047 2125
1966 2044 2045 2048 2126
1967 2045 2048 2049 2127
1968 2046 2047 2050 2128
1969 2047 2050 2051 2129
1970 2048 2049 2052 2130
1971 2049 2052 2053 2131
1972 2050 2051 2054 2132
1973 2051 2054 2055 2133
1974 2052 2053 2056 2134
1975 2053 2056 2057 2135
1976 2054 2055 2058 2136
1977 2055 2058 2059 2137
1978 2056 2057 2060 2138
1979 2057 2060 2061 2139
1980 2058 2059 2062 2140
1981 2059 2062 2063 2141
1982 2060 2061 2064 2142
1983 2061 2064 2065 2143
1984 2062 2063 2066 2144
1985 2063 2066 2067 2145
1986 2064 2065 2068 2146
1987 2065 2068 2069 2147
1988 2066 2067 2070 2148
1989 2067 2070 2071 2149
1990 2068 2069 2072 2150
1991 2069 2072 2073 2151
1992 2070 2071 2074 2152
1993 2071 2074 2075 2153
1994 2072 2073 2076 2154
1995 2073 2076 2077 2155
1996 2074 2075 2078 2156
1997 2075 2078 2079 2157
1998 2076 2077 2080 2158
1999 2077 2080 2159
2000 2078 2079 2160
2001 2082 2083 2161
2002 2081 2084 2162
2003 2081 2084 2085 2163
2004 2082 2083 2086 2164
2005 2083 2086 2087 2165
2006 2084 2085 2088 2166
2007 2085 2088 2089 2167
2008 2086 2087 2090 2168
2009 2087 2090 2091 2169
2010 2088 2089 2092 2170
2011 2089 2092 2093 2171
2012 2090 2091 2094 2172
2013 2091 2094 2095 2173
2014 2092 2093 2096 2174
2015 2093 2096 2097 2175
2016 2094 2095 2098 2176
2017 2095 2098 2099 2177
2018 2096 2097 2100 2178
2019 2097 2100 2101 2179
2020 2098 2099 2102 2180
2021 2099 2102 2103 2181
2022 2100 2101 2104 2182
2023 2101 2104 2105 2183
2024 2102 2103 2106 2184
2025 2103 2106 2107 2185
2026 2104 2105 2108 2186
2027 2105 2108 2109 2187
2028 2106 2107 2110 2188
2029 2107 2110 2111 2189
2030 2108 2109 2112 2190
2031 2109 2112 2113 2191
2032 2110 2111 2114 2192
2033 2111 2114 2115 2193
2034 2112 2113 2116 2194
2035 2113 2116 2117 2195
2036 2114 2115 2118 2196
2037 2115 2118 2119 2197
2038 2116 2117 2120 2198
2039 2117 2120 2121 2199
2040 2118 2119 2122 2200
2041 2119 2122 2123 2201
2042 2120 2121 2124 2202
2043 2121 2124 2125 2203
2044 2122 2123 2126 2204
2045 2123 2126 2127 2205
2046 2124 2125 2128 2206
2047 2125 2128 2129 2207
2048 2126 2127 2130 2208
2049 2127 2130 2131 2209
2050 2128 2129 2132 2210
2051 2129 2132 2133 2211
2052 2130 2131 2134 2212
2053 2131 2134 2135 2213
2054 2132 2133 2136 2214
2055 2133 2136 2137 2215
2056 2134 2135 2138 2216
2057 2135 2138 2139 2217
2058 2136 2137 2140 2218
2059 2137 2140 2141 2219
2060 2138 2139 2142 2220
2061 2139 2142 2143 2221
2062 2140 2141 2144 2222
2063 2141 2144 2145 2223
2064 2142 2143 2146 2224
2065 2143 2146 2147 2225
2066 2144 2145 2148 2226
2067 2145 2148 2149 2227
2068 2146 2147 2150 2228
2069 2147 2150 2151 2229
2070 2148 2149 2152 2230
2071 2149 2152 2153 2231
2072 2150 2151 2154 2232
2073 2151 2154 2155 2233
2074 2152 2153 2156 2234
2075 2153 2156 2157 2235
2076 2154 2155 2158 2236
2077 2155 2158 2159 2237
2078 2156 2157 2160 2238
2079 2157 2160 2239
2080 2158 2159 2240
2081 2162 2163 2241
2082 2161 2164 2242
2083 2161 2164 2165 2243
2084 2162 2163 2166 2244
2085 2163 2166 2167 2245
2086 2164 2165 2168 2246
2087 2165 2168 2169 2247
2088 2166 2167 2170 2248
2089 2167 2170 2171 2249
2090 2168 2169 2172 2250
2091 2169 2172 2173 2251
2092 2170 2171 2174 2252
2093 2171 2174 2175 2253
2094 2172 2173 2176 2254
2095 2173 2176 2177 2255
2096 2174 2175 2178 2256
2097 2175 2178 2179 2257
2098 2176 2177 2180 2258
2099 2177 2180 2181 2259
2100 2178 2179 2182 2260
2101 2179 2182 2183 2261
2102 2180 2181 2184 2262
2103 2181 2184 2185 2263
2104 2182 2183 2186 2264
2105 2183 2186 2187 2265
2106 2184 2185 2188 2266
2107 2185 2188 2189 2267
2108 2186 2187 2190 2268
2109 2187 2190 2191 2269
2110 2188 2189 2192 2270
2111 2189 2192 2193 2271
2112 2190 2191 2194 2272
2113 2191 2194 2195 2273
2114 2192 2193 2196 2274
2115 2193 2196 2197 2275
2116 2194 2195 2198 2276
2117 2195 2198 2199 2277
2118 2196 2197 2200 2278
2119 2197 2200 2201 2279
2120 2198 2199 2202 2280
2121 2199 2202 2203 2281
2122 2200 2201 2204 2282
2123 2201 2204 2205 2283
2124 2202 2203 2206 2284
2125 2203 2206 2207 2285
2126 2204 2205 2208 2286
2127 2205 2208 2209 2287
2128 2206 2207 2210 2288
2129 2207 2210 2211 2289
2130 2208 2209 2212 2290
2131 2209 2212 2213 2291
2132 2210 2211 2214 2292
2133 2211 2214 2215 2293
2134 2212 2213 2216 2294
2135 2213 2216 2217 2295
2136 2214 2215 2218 2296
2137 2215 2218 2219 2297
2138 2216 2217 2220 2298
2139 2217 2220 2221 2299
2140 2218 2219 2222 2300
2141 2219 2222 2223 2301
2142 2220 2221 2224 2302
2143 2221 2224 2225 2303
2144 2222 2223 2226 2304
2145 2223 2226 2227 2305
2146 2224 2225 2228 2306
2147 2225 2228 2229 2307
2148 2226 2227 2230 2308
2149 2227 2230 2231 2309
2150 2228 2229 2232 2310
2151 2229 2232 2233 2311
2152 2230 2231 2234 2312
2153 2231 2234 2235 2313
2154 2232 2233 2236 2314
2155 2233 2236 2237 2315
2156 2234 2235 2238 2316
2157 2235 2238 2239 2317
2158 2236 2237 2240 2318
2159 2237 2240 2319
2160 2238 2239 2320
2161 2242 2243 2321
2162 2241 2244 2322
2163 2241 2244 2245 2323
2164 2242 2243 2246 2324
2165 2243 2246 2247 2325
2166 2244 2245 2248 2326
2167 2245 2248 2249 2327
2168 2246 2247 2250 2328
2169 2247 2250 2251 2329
2170 2248 2249 2252 2330
2171 2249 2252 2253 2331
2172 2250 2251 2254 2332
2173 2251 2254 2255 2333
2174 2252 2253 2256 2334
2175 2253 2256 2257 2335
2176 2254 2255 2258 2336
2177 2255 2258 2259 2337
2178 2256 2257 2260 2338
2179 2257 2260 2261 2339
2180 2258 2259 2262 2340
2181 2259 2262 2263 2341
2182 2260 2261 2264 2342
2183 2261 2264 2265 2343
2184 2262 2263 2266 2344
2185 2263 2266 2267 2345
2186 2264 2265 2268 2346
2187 2265 2268 2269 2347
2188 2266 2267 2270 2348
2189 2267 2270 2271 2349
2190 2268 2269 2272 2350
2191 2269 2272 2273 2351
2192 2270 2271 2274 2352
2193 2271 2274 2275 2353
2194 2272 2273 2276 2354
2195 2273 2276 2277 2355
2196 2274 2275 2278 2356
2197 2275 2278 2279 2357
2198 2276 2277 2280 2358
2199 2277 2280 2281 2359
2200 2278 2279 2282 2360
2201 2279 2282 2283 2361
2202 2280 2281 2284 2362
2203 2281 2284 2285 2363
2204 2282 2283 2286 2364
2205 2283 2286 2287 2365
2206 2284 2285 2288 2366
2207 2285 2288 2289 2367
2208 2286 2287 2290 2368
2209 2287 2290 2291 2369
2210 2288 2289 2292 2370
2211 2289 2292 2293 2371
2212 2290 2291 2294 2372
2213 2291 2294 2295 2373
2214 2292 2293 2296 2374
2215 2293 2296 2297 2375
2216 2294 2295 2298 2376
2217 2295 2298 2299 2377
2218 2296 2297 2300 2378
2219 2297 2300 2301 2379
2220 2298 2299 2302 2380
2221 2299 2302 2303 2381
2222 2300 2301 2304 2382
2223 2301 2304 2305 2383
2224 2302 2303 2306 2384
2225 2303 2306 2307 2385
2226 2304 2305 2308 2386
2227 2305 2308 2309 2387
2228 2306 2307 2310 2388
2229 2307 2310 2311 2389
2230 2308 2309 2312 2390
2231 2309 2312 2313 2391
2232 2310 2311 2314 2392
2233 2311 2314 2315 2393
2234 2312 2313 2316 2394
2235 2313 2316 2317 2395
2236 2314 2315 2318 2396
2237 2315 2318 2319 2397
2238 2316 2317 2320 2398
2239 2317 2320 2399
2240 2318 2319 2400
2241 2322 2323 2401
2242 2321 2324 2402
2243 2321 2324 2325 2403
2244 2322 2323 2326 2404
2245 2323 2326 2327 2405
2246 2324 2325 2328 2406
2247 2325 2328 2329 2407
2248 2326 2327 2330 2408
2249 2327 2330 2331 2409
2250 2328 2329 2332 2410
2251 2329 2332 2333 2411
2252 2330 2331 2334 2412
2253 2331 2334 2335 2413
2254 2332 2333 2336 2414
2255 2333 2336 2337 2415
2256 2334 2335 2338 2416
2257 2335 2338 2339 2417
2258 2336 2337 2340 2418
2259 2337 2340 2341 2419
2260 2338 2339 2342 2420
2261 2339 2342 2343 2421
2262 2340 2341 2344 2422
2263 2341 2344 2345 2423
2264 2342 2343 2346 2424
2265 2343 2346 2347 2425
2266 2344 2345 2348 2426
2267 2345 2348 2349 2427
2268 2346 2347 2350 2428
2269 2347 2350 2351 2429
2270 2348 2349 2352 2430
2271 2349 2352 2353 2431
2272 2350 2351 2354 2432
2273 2351 2354 2355 2433
2274 2352 2353 2356 2434
2275 2353 2356 2357 2435
2276 2354 2355 2358 2436
2277 2355 2358 2359 2437
2278 2356 2357 2360 2438
2279 2357 2360 2361 2439
2280 2358 2359 2362 2440
2281 2359 2362 2363 2441
2282 2360 2361 2364 2442
2283 2361 2364 2365 2443
2284 2362 2363 2366 2444
2285 2363 2366 2367 2445
2286 2364 2365 2368 2446
2287 2365 2368 2369 2447
2288 2366 2367 2370 2448
2289 2367 2370 2371 2449
2290 2368 2369 2372 2450
2291 2369 2372 2373 2451
2292 2370 2371 2374 2452
2293 2371 2374 2375 2453
2294 2372 2373 2376 2454
2295 2373 2376 2377 2455
2296 2374 2375 2378 2456
2297 2375 2378 2379 2457
2298 2376 2377 2380 2458
2299 2377 2380 2381 2459
2300 2378 2379 2382 2460
2301 2379 2382 2383 2461
2302 2380 2381 2384 2462
2303 2381 2384 2385 2463
2304 2382 2383 2386 2464
2305 2383 2386 2387 2465
2306 2384 2385 2388 2466
2307 2385 2388 2389 2467
2308 2386 2387 2390 2468
2309 2387 2390 2391 2469
2310 2388 2389 2392 2470
2311 2389 2392 2393 2471
2312 2390 2391 2394 2472
2313 2391 2394 2395 2473
2314 2392 2393 2396 2474
2315 2393 2396 2397 2475
2316 2394 2395 2398 2476
2317 2395 2398 2399 2477
2318 2396 2397 2400 2478
2319 2397 2400 2479
2320 2398 2399 2480
2321 2402 2403 2481
2322 2401 2404 2482
2323 2401 2404 2405 2483
2324 2402 2403 2406 2484
2325 2403 2406 2407 2485
2326 2404 2405 2408 2486
2327 2405 2408 2409 2487
2328 2406 2407 2410 2488
2329 2407 2410 2411 2489
2330 2408 2409 2412 2490
2331 2409 2412 2413 2491
2332 2410 2411 2414 2492
2333 2411 2414 2415 2493
2334 2412 2413 2416 2494
2335 2413 2416 2417 2495
2336 2414 2415 2418 2496
2337 2415 2418 2419 2497
2338 2416 2417 2420 2498
2339 2417 2420 2421 2499
2340 2418 2419 2422 2500
2341 2419 2422 2423 2501
2342 2420 2421 2424 2502
2343 2421 2424 2425 2503
2344 2422 2423 2426 2504
2345 2423 2426 2427 2505
2346 2424 2425 2428 2506
2347 2425 2428 2429 2507
2348 2426 2427 2430 2508
2349 2427 2430 2431 2509
2350 2428 2429 2432 2510
2351 2429 2432 2433 2511
2352 2430 2431 2434 2512
2353 2431 2434 2435 2513
2354 2432 2433 2436 2514
2355 2433 2436 2437 2515
2356 2434 2435 2438 2516
2357 2435 2438 2439 2517
2358 2436 2437 2440 2518
2359 2437 2440 2441 2519
2360 2438 2439 2442 2520
2361 2439 2442 2443 2521
2362 2440 2441 2444 2522
2363 2441 2444 2445 2523
2364 2442 2443 2446 2524
2365 2443 2446 2447 2525
2366 2444 2445 2448 2526
2367 2445 2448 2449 2527
2368 2446 2447 2450 2528
2369 2447 2450 2451 2529
2370 2448 2449 2452 2530
2371 2449 2452 2453 2531
2372 2450 2451 2454 2532
2373 2451 2454 2455 2533
2374 2452 2453 2456 2534
2375 2453 2456 2457 2535
2376 2454 2455 2458 2536
2377 2455 2458 2459 2537
2378 2456 2457 2460 2538
2379 2457 2460 2461 2539
2380 2458 2459 2462 2540
2381 2459 2462 2463 2541
2382 2460 2461 2464 2542
2383 2461 2464 2465 2543
2384 2462 2463 2466 2544
2385 2463 2466 2467 2545
2386 2464 2465 2468 2546
2387 2465 2468 2469 2547
2388 2466 2467 2470 2548
2389 2467 2470 2471 2549
2390 2468 2469 2472 2550
2391 2469 2472 2473 2551
2392 2470 2471 2474 2552
2393 2471 2474 2475 2553
2394 2472 2473 2476 2554
2395 2473 2476 2477 2555
2396 2474 2475 2478 2556
2397 2475 2478 2479 2557
2398 2476 2477 2480 2558
2399 2477 2480 2559
2400 2478 2479 2560
2401 2482 2483 2561
2402 2481 2484 2562
2403 2481 2484 2485 2563
2404 2482 2483 2486 2564
2405 2483 2486 2487 2565
2406 2484 2485 2488 2566
2407 2485 2488 2489 2567
2408 2486 2487 2490 2568
2409 2487 2490 2491 2569
2410 2488 2489 2492 2570
2411 2489 2492 2493 2571
2412 2490 2491 2494 2572
2413 2491 2494 2495 2573
2414 2492 2493 2496 2574
2415 2493 2496 2497 2575
2416 2494 2495 2498 2576
2417 2495 2498 2499 2577
2418 2496 2497 2500 2578
2419 2497 2500 2501 2579
2420 2498 2499 2502 2580
2421 2499 2502 2503 2581
2422 2500 2501 2504 2582
2423 2501 2504 2505 2583
2424 2502 2503 2506 2584
2425 2503 2506 2507 2585
2426 2504 2505 2508 2586
2427 2505 2508 2509 2587
2428 2506 2507 2510 2588
2429 2507 2510 2511 2589
2430 2508 2509 2512 2590
2431 2509 2512 2513 2591
2432 2510 2511 2514 2592
2433 2511 2514 2515 2593
2434 2512 2513 2516 2594
2435 2513 2516 2517 2595
2436 2514 2515 2518 2596
2437 2515 2518 2519 2597
2438 2516 2517 2520 2598
2439 2517 2520 2521 2599
2440 2518 2519 2522 2600
2441 2519 2522 2523 2601
2442 2520 2521 2524 2602
2443 2521 2524 2525 2603
2444 2522 2523 2526 2604
2445 2523 2526 2527 2605
2446 2524 2525 2528 2606
2447 2525 2528 2529 2607
2448 2526 2527 2530 2608
2449 2527 2530 2531 2609
2450 2528 2529 2532 2610
2451 2529 2532 2533 2611
2452 2530 2531 2534 2612
2453 2531 2534 2535 2613
2454 2532 2533 2536 2614
2455 2533 2536 2537 2615
2456 2534 2535 2538 2616
2457 2535 2538 2539 2617
2458 2536 2537 2540 2618
2459 2537 2540 2541 2619
2460 2538 2539 2542 2620
2461 2539 2542 2543 2621
2462 2540 2541 2544 2622
2463 2541 2544 2545 2623
2464 2542 2543 2546 2624
2465 2543 2546 2547 2625
2466 2544 2545 2548 2626
2467 2545 2548 2549 2627
2468 2546 2547 2550 2628
2469 2547 2550 2551 2629
2470 2548 2549 2552 2630
2471 2549 2552 2553 2631
2472 2550 2551 2554 2632
2473 2551 2554 2555 2633
2474 2552 2553 2556 2634
2475 2553 2556 2557 2635
2476 2554 2555 2558 2636
2477 2555 2558 2559 2637
2478 2556 2557 2560 2638
2479 2557 2560 2639
2480 2558 2559 2640
2481 2562 2563 2641
2482 2561 2564 2642
2483 2561 2564 2565 2643
2484 2562 2563 2566 2644
2485 2563 2566 2567 2645
2486 2564 2565 2568 2646
2487 2565 2568 2569 2647
2488 2566 2567 2570 2648
2489 2567 2570 2571 2649
2490 2568 2569 2572 2650
2491 2569 2572 2573 2651
2492 2570 2571 2574 2652
2493 2571 2574 2575 2653
2494 2572 2573 2576 2654
2495 2573 2576 2577 2655
2496 2574 2575 2578 2656
2497 2575 2578 2579 2657
2498 2576 2577 2580 2658
2499 2577 2580 2581 2659
2500 2578 2579 2582 2660
2501 2579 2582 2583 2661
2502 2580 2581 2584 2662
2503 2581 2584 2585 2663
2504 2582 2583 2586 2664
2505 2583 2586 2587 2665
2506 2584 2585 2588 2666
2507 2585 2588 2589 2667
2508 2586 2587 2590 2668
2509 2587 2590 2591 2669
2510 2588 2589 2592 2670
2511 2589 2592 2593 2671
2512 2590 2591 2594 2672
2513 2591 2594 2595 2673
2514 2592 2593 2596 2674
2515 2593 2596 2597 2675
2516 2594 2595 2598 2676
2517 2595 2598 2599 2677
2518 2596 2597 2600 2678
2519 2597 2600 2601 2679
2520 2598 2599 2602 2680
2521 2599 2602 2603 2681
2522 2600 2601 2604 2682
2523 2601 2604 2605 2683
2524 2602 2603 2606 2684
2525 2603 2606 2607 2685
2526 2604 2605 2608 2686
2527 2605 2608 2609 2687
2528 2606 2607 2610 2688
2529 2607 2610 2611 2689
2530 2608 2609 2612 2690
2531 2609 2612 2613 2691
2532 2610 2611 2614 2692
2533 2611 2614 2615 2693
2534 2612 2613 2616 2694
2535 2613 2616 2617 2695
2536 2614 2615 2618 2696
2537 2615 2618 2619 2697
2538 2616 2617 2620 2698
2539 2617 2620 2621 2699
2540 2618 2619 2622 2700
2541 2619 2622 2623 2701
2542 2620 2621 2624 2702
2543 2621 2624 2625 2703
2544 2622 2623 2626 2704
2545 2623 2626 2627 2705
2546 2624 2625 2628 2706
2547 2625 2628 2629 2707
2548 2626 2627 2630 2708
2549 2627 2630 2631 2709
2550 2628 2629 2632 2710
2551 2629 2632 2633 2711
2552 2630 2631 2634 2712
2553 2631 2634 2635 2713
2554 2632 2633 2636 2714
2555 2633 2636 2637 2715
2556 2634 2635 2638 2716
2557 2635 2638 2639 2717
2558 2636 2637 2640 2718
2559 2637 2640 2719
2560 2638 2639 2720
2561 2642 2643 2721
2562 2641 2644 2722
2563 2641 2644 2645 2723
2564 2642 2643 2646 2724
2565 2643 2646 2647 2725
2566 2644 2645 2648 2726
2567 2645 2648 2649 2727
2568 2646 2647 2650 2728
2569 2647 2650 2651 2729
2570 2648 2649 2652 2730
2571 2649 2652 2653 2731
2572 2650 2651 2654 2732
2573 2651 2654 2655 2733
2574 2652 2653 2656 2734
2575 2653 2656 2657 2735
2576 2654 2655 2658 2736
2577 2655 2658 2659 2737
2578 2656 2657 2660 2738
2579 2657 2660 2661 2739
2580 2658 2659 2662 2740
2581 2659 2662 2663 2741
2582 2660 2661 2664 2742
2583 2661 2664 2665 2743
2584 2662 2663 2666 2744
2585 2663 2666 2667 2745
2586 2664 2665 2668 2746
2587 2665 2668 2669 2747
2588 2666 2667 2670 2748
2589 2667 2670 2671 2749
2590 2668 2669 2672 2750
2591 2669 2672 2673 2751
2592 2670 2671 2674 2752
2593 2671 2674 2675 2753
2594 2672 2673 2676 2754
2595 2673 2676 2677 2755
2596 2674 2675 2678 2756
2597 2675 2678 2679 2757
2598 2676 2677 2680 2758
2599 2677 2680 2681 2759
2600 2678 2679 2682 2760
2601 2679 2682 2683 2761
2602 2680 2681 2684 2762
2603 2681 2684 2685 2763
2604 2682 2683 2686 2764
2605 2683 2686 2687 2765
2606 2684 2685 2688 2766
2607 2685 2688 2689 2767
2608 2686 2687 2690 2768
2609 2687 2690 2691 2769
2610 2688 2689 2692 2770
2611 2689 2692 2693 2771
2612 2690 2691 2694 2772
2613 2691 2694 2695 2773
2614 2692 2693 2696 2774
2615 2693 2696 2697 2775
2616 2694 2695 2698 2776
2617 2695 2698 2699 2777
2618 2696 2697 2700 2778
2619 2697 2700 2701 2779
2620 2698 2699 2702 2780
2621 2699 2702 2703 2781
2622 2700 2701 2704 2782
2623 2701 2704 2705 2783
2624 2702 2703 2706 2784
2625 2703 2706 2707 2785
2626 2704 2705 2708 2786
2627 2705 2708 2709 2787
2628 2706 2707 2710 2788
2629 2707 2710 2711 2789
2630 2708 2709 2712 2790
2631 2709 2712 2713 2791
2632 2710 2711 2714 2792
2633 2711 2714 2715 2793
2634 2712 2713 2716 2794
2635 2713 2716 2717 2795
2636 2714 2715 2718 2796
2637 2715 2718 2719 2797
2638 2716 2717 2720 2798
2639 2717 2720 2799
2640 2718 2719 2800
2641 2722 2723 2801
2642 2721 2724 2802
2643 2721 2724 2725 2803
2644 2722 2723 2726 2804
2645 2723 2726 2727 2805
2646 2724 2725 2728 2806
2647 2725 2728 2729 2807
2648 2726 2727 2730 2808
2649 2727 2730 2731 2809
2650 2728 2729 2732 2810
2651 2729 2732 2733 2811
2652 2730 2731 2734 2812
2653 2731 2734 2735 2813
2654 2732 2733 2736 2814
2655 2733 2736 2737 2815
2656 2734 2735 2738 2816
2657 2735 2738 2739 2817
2658 2736 2737 2740 2818
2659 2737 2740 2741 2819
2660 2738 2739 2742 2820
2661 2739 2742 2743 2821
2662 2740 2741 2744 2822
2663 2741 2744 2745 2823
2664 2742 2743 2746 2824
2665 2743 2746 2747 2825
2666 2744 2745 2748 2826
2667 2745 2748 2749 2827
2668 2746 2747 2750 2828
2669 2747 2750 2751 2829
2670 2748 2749 2752 2830
2671 2749 2752 2753 2831
2672 2750 2751 2754 2832
2673 2751 2754 2755 2833
2674 2752 2753 2756 2834
2675 2753 2756 2757 2835
2676 2754 2755 2758 2836
2677 2755 2758 2759 2837
2678 2756 2757 2760 2838
2679 2757 2760 2761 2839
2680 2758 2759 2762 2840
2681 2759 2762 2763 2841
2682 2760 2761 2764 2842
2683 2761 2764 2765 2843
2684 2762 2763 2766 2844
2685 2763 2766 2767 2845
2686 2764 2765 2768 2846
2687 2765 2768 2769 2847
2688 2766 2767 2770 2848
2689 2767 2770 2771 2849
2690 2768 2769 2772 2850
2691 2769 2772 2773 2851
2692 2770 2771 2774 2852
2693 2771 2774 2775 2853
2694 2772 2773 2776 2854
2695 2773 2776 2777 2855
2696 2774 2775 2778 2856
2697 2775 2778 2779 2857
2698 2776 2777 2780 2858
2699 2777 2780 2781 2859
2700 2778 2779 2782 2860
2701 2779 2782 2783 2861
2702 2780 2781 2784 2862
2703 2781 2784 2785 2863
2704 2782 2783 2786 2864
2705 2783 2786 2787 2865
2706 2784 2785 2788 2866
2707 2785 2788 2789 2867
2708 2786 2787 2790 2868
2709 2787 2790 2791 2869
2710 2788 2789 2792 2870
2711 2789 2792 2793 2871
2712 2790 2791 2794 2872
2713 2791 2794 2795 2873
2714 2792 2793 2796 2874
2715 2793 2796 2797 2875
2716 2794 2795 2798 2876
2717 2795 2798 2799 2877
2718 2796 2797 2800 2878
2719 2797 2800 2879
2720 2798 2799 2880
2721 2802 2803 2881
2722 2801 2804 2882
2723 2801 2804 2805 2883
2724 2802 2803 2806 2884
2725 2803 2806 2807 2885
2726 2804 2805 2808 2886
2727 2805 2808 2809 2887
2728 2806 2807 2810 2888
2729 2807 2810 2811 2889
2730 2808 2809 2812 2890
2731 2809 2812 2813 2891
2732 2810 2811 2814 2892
2733 2811 2814 2815 2893
2734 2812 2813 2816 2894
2735 2813 2816 2817 2895
2736 2814 2815 2818 2896
2737 2815 2818 2819 2897
2738 2816 2817 2820 2898
2739 2817 2820 2821 2899
2740 2818 2819 2822 2900
2741 2819 2822 2823 2901
2742 2820 2821 2824 2902
2743 2821 2824 2825 2903
2744 2822 2823 2826 2904
2745 2823 2826 2827 2905
2746 2824 2825 2828 2906
2747 2825 2828 2829 2907
2748 2826 2827 2830 2908
2749 2827 2830 2831 2909
2750 2828 2829 2832 2910
2751 2829 2832 2833 2911
2752 2830 2831 2834 2912
2753 2831 2834 2835 2913
2754 2832 2833 2836 2914
2755 2833 2836 2837 2915
2756 2834 2835 2838 2916
2757 2835 2838 2839 2917
2758 2836 2837 2840 2918
2759 2837 2840 2841 2919
2760 2838 2839 2842 2920
2761 2839 2842 2843 2921
2762 2840 2841 2844 2922
2763 2841 2844 2845 2923
2764 2842 2843 2846 2924
2765 2843 2846 2847 2925
2766 2844 2845 2848 2926
2767 2845 2848 2849 2927
2768 2846 2847 2850 2928
2769 2847 2850 2851 2929
2770 2848 2849 2852 2930
2771 2849 2852 2853 2931
2772 2850 2851 2854 2932
2773 2851 2854 2855 2933
2774 2852 2853 2856 2934
2775 2853 2856 2857 2935
2776 2854 2855 2858 2936
2777 2855 2858 2859 2937
2778 2856 2857 2860 2938
2779 2857 2860 2861 2939
2780 2858 2859 2862 2940
2781 2859 2862 2863 2941
2782 2860 2861 2864 2942
2783 2861 2864 2865 2943
2784 2862 2863 2866 2944
2785 2863 2866 2867 2945
2786 2864 2865 2868 2946
2787 2865 2868 2869 2947
2788 2866 2867 2870 2948
2789 2867 2870 2871 2949
2790 2868 2869 2872 2950
2791 2869 2872 2873 2951
2792 2870 2871 2874 2952
2793 2871 2874 2875 2953
2794 2872 2873 2876 2954
2795 2873 2876 2877 2955
2796 2874 2875 2878 2956
2797 2875 2878 2879 2957
2798 2876 2877 2880 2958
2799 2877 2880 2959
2800 2878 2879 2960
2801 2882 2883 2961
2802 2881 2884 2962
2803 2881 2884 2885 2963
2804 2882 2883 2886 2964
2805 2883 2886 2887 2965
2806 2884 2885 2888 2966
2807 2885 2888 2889 2967
2808 2886 2887 2890 2968
2809 2887 2890 2891 2969
2810 2888 2889 2892 2970
2811 2889 2892 2893 2971
2812 2890 2891 2894 2972
2813 2891 2894 2895 2973
2814 2892 2893 2896 2974
2815 2893 2896 2897 2975
2816 2894 2895 2898 2976
2817 2895 2898 2899 2977
2818 2896 2897 2900 2978
2819 2897 2900 2901 2979
2820 2898 2899 2902 2980
2821 2899 2902 2903 2981
2822 2900 2901 2904 2982
2823 2901 2904 2905 2983
2824 2902 2903 2906 2984
2825 2903 2906 2907 2985
2826 2904 2905 2908 2986
2827 2905 2908 2909 2987
2828 2906 2907 2910 2988
2829 2907 2910 2911 2989
2830 2908 2909 2912 2990
2831 2909 2912 2913 2991
2832 2910 2911 2914 2992
2833 2911 2914 2915 2993
2834 2912 2913 2916 2994
2835 2913 2916 2917 2995
2836 2914 2915 2918 2996
2837 2915 2918 2919 2997
2838 2916 2917 2920 2998
2839 2917 2920 2921 2999
2840 2918 2919 2922 3000
2841 2919 2922 2923 3001
2842 2920 2921 2924 3002
2843 2921 2924 2925 3003
2844 2922 2923 2926 3004
2845 2923 2926 2927 3005
2846 2924 2925 2928 3006
2847 2925 2928 2929 3007
2848 2926 2927 2930 3008
2849 2927 2930 2931 3009
2850 2928 2929 2932 3010
2851 2929 2932 2933 3011
2852 2930 2931 2934 3012
2853 2931 2934 2935 3013
2854 2932 2933 2936 3014
2855 2933 2936 2937 3015
2856 2934 2935 2938 3016
2857 2935 2938 2939 3017
2858 2936 2937 2940 3018
2859 2937 2940 2941 3019
2860 2938 2939 2942 3020
2861 2939 2942 2943 3021
2862 2940 2941 2944 3022
2863 2941 2944 2945 3023
2864 2942 2943 2946 3024
2865 2943 2946 2947 3025
2866 2944 2945 2948 3026
2867 2945 2948 2949 3027
2868 2946 2947 2950 3028
2869 2947 2950 2951 3029
2870 2948 2949 2952 3030
2871 2949 2952 2953 3031
2872 2950 2951 2954 3032
2873 2951 2954 2955 3033
2874 2952 2953 2956 3034
2875 2953 2956 2957 3035
2876 2954 2955 2958 3036
2877 2955 2958 2959 3037
2878 2956 2957 2960 3038
2879 2957 2960 3039
2880 2958 2959 3040
2881 2962 2963 3041
2882 2961 2964 3042
2883 2961 2964 2965 3043
2884 2962 2963 2966 3044
2885 2963 2966 2967 3045
2886 2964 2965 2968 3046
2887 2965 2968 2969 3047
2888 2966 2967 2970 3048
2889 2967 2970 2971 3049
2890 2968 2969 2972 3050
2891 2969 2972 2973 3051
2892 2970 2971 2974 3052
2893 2971 2974 2975 3053
2894 2972 2973 2976 3054
2895 2973 2976 2977 3055
2896 2974 2975 2978 3056
2897 2975 2978 2979 3057
2898 2976 2977 2980 3058
2899 2977 2980 2981 3059
2900 2978 2979 2982 3060
2901 2979 2982 2983 3061
2902 2980 2981 2984 3062
2903 2981 2984 2985 3063
2904 2982 2983 2986 3064
2905 2983 2986 2987 3065
2906 2984 2985 2988 3066
2907 2985 2988 2989 3067
2908 2986 2987 2990 3068
2909 2987 2990 2991 3069
2910 2988 2989 2992 3070
2911 2989 2992 2993 3071
2912 2990 2991 2994 3072
2913 2991 2994 2995 3073
2914 2992 2993 2996 3074
2915 2993 2996 2997 3075
2916 2994 2995 2998 3076
2917 2995 2998 2999 3077
2918 2996 2997 3000 3078
2919 2997 3000 3001 3079
2920 2998 2999 3002 3080
2921 2999 3002 3003 3081
2922 3000 3001 3004 3082
2923 3001 3004 3005 3083
2924 3002 3003 3006 3084
2925 3003 3006 3007 3085
2926 3004 3005 3008 3086
2927 3005 3008 3009 3087
2928 3006 3007 3010 3088
2929 3007 3010 3011 3089
2930 3008 3009 3012 3090
2931 3009 3012 3013 3091
2932 3010 3011 3014 3092
2933 3011 3014 3015 3093
2934 3012 3013 3016 3094
2935 3013 3016 3017 3095
2936 3014 3015 3018 3096
2937 3015 3018 3019 3097
2938 3016 3017 3020 3098
2939 3017 3020 3021 3099
2940 3018 3019 3022 3100
2941 3019 3022 3023 3101
2942 3020 3021 3024 3102
2943 3021 3024 3025 3103
2944 3022 3023 3026 3104
2945 3023 3026 3027 3105
2946 3024 3025 3028 3106
2947 3025 3028 3029 3107
2948 3026 3027 3030 3108
2949 3027 3030 3031 3109
2950 3028 3029 3032 3110
2951 3029 3032 3033 3111
2952 3030 3031 3034 3112
2953 3031 3034 3035 3113
2954 3032 3033 3036 3114
2955 3033 3036 3037 3115
2956 3034 3035 3038 3116
2957 3035 3038 3039 3117
2958 3036 3037 3040 3118
2959 3037 3040 3119
2960 3038 3039 3120
2961 3042 3043 3121
2962 3041 3044 3122
2963 3041 3044 3045 3123
2964 3042 3043 3046 3124
2965 3043 3046 3047 3125
2966 3044 3045 3048 3126
2967 3045 3048 3049 3127
2968 3046 3047 3050 3128
2969 3047 3050 3051 3129
2970 3048 3049 3052 3130
2971 3049 3052 3053 3131
2972 3050 3051 3054 3132
2973 3051 3054 3055 3133
2974 3052 3053 3056 3134
2975 3053 3056 3057 3135
2976 3054 3055 3058 3136
2977 3055 3058 3059 3137
2978 3056 3057 3060 3138
2979 3057 3060 3061 3139
2980 3058 3059 3062 3140
2981 3059 3062 3063 3141
2982 3060 3061 3064 3142
2983 3061 3064 3065 3143
2984 3062 3063 3066 3144
2985 3063 3066 3067 3145
2986 3064 3065 3068 3146
2987 3065 3068 3069 3147
2988 3066 3067 3070 3148
2989 3067 3070 3071 3149
2990 3068 3069 3072 3150
2991 3069 3072 3073 3151
2992 3070 3071 3074 3152
2993 3071 3074 3075 3153
2994 3072 3073 3076 3154
2995 3073 3076 3077 3155
2996 3074 3075 3078 3156
2997 3075 3078 3079 3157
2998 3076 3077 3080 3158
2999 3077 3080 3081 3159
3000 3078 3079 3082 3160
3001 3079 3082 3083 3161
3002 3080 3081 3084 3162
3003 3081 3084 3085 3163
3004 3082 3083 3086 3164
3005 3083 3086 3087 3165
3006 3084 3085 3088 3166
3007 3085 3088 3089 3167
3008 3086 3087 3090 3168
3009 3087 3090 3091 3169
3010 3088 3089 3092 3170
3011 3089 3092 3093 3171
3012 3090 3091 3094 3172
3013 3091 3094 3095 3173
3014 3092 3093 3096 3174
3015 3093 3096 3097 3175
3016 3094 3095 3098 3176
3017 3095 3098 3099 3177
3018 3096 3097 3100 3178
3019 3097 3100 3101 3179
3020 3098 3099 3102 3180
3021 3099 3102 3103 3181
3022 3100 3101 3104 3182
3023 3101 3104 3105 3183
3024 3102 3103 3106 3184
3025 3103 3106 3107 3185
3026 3104 3105 3108 3186
3027 3105 3108 3109 3187
3028 3106 3107 3110 3188
3029 3107 3110 3111 3189
3030 3108 3109 3112 3190
3031 3109 3112 3113 3191
3032 3110 3111 3114 3192
3033 3111 3114 3115 3193
3034 3112 3113 3116 3194
3035 3113 3116 3117 3195
3036 3114 3115 3118 3196
3037 3115 3118 3119 3197
3038 3116 3117 3120 3198
3039 3117 3120 3199
3040 3118 3119 3200
3041 3122 3123
3042 3121 3124
3043 3121 3124 3125
3044 3122 3123 3126
3045 3123 3126 3127
3046 3124 3125 3128
3047 3125 3128 3129
3048 3126 3127 3130
3049 3127 3130 3131
3050 3128 3129 3132
3051 3129 3132 3133
3052 3130 3131 3134
3053 3131 3134 3135
3054 3132 3133 3136
3055 3133 3136 3137
3056 3134 3135 3138
3057 3135 3138 3139
3058 3136 3137 3140
3059 3137 3140 3141
3060 3138 3139 3142
3061 3139 3142 3143
3062 3140 3141 3144
3063 3141 3144 3145
3064 3142 3143 3146
3065 3143 3146 3147
3066 3144 3145 3148
3067 3145 3148 3149
3068 3146 3147 3150
3069 3147 3150 3151
3070 3148 3149 3152
3071 3149 3152 3153
3072 3150 3151 3154
3073 3151 3154 3155
3074 3152 3153 3156
3075 3153 3156 3157
3076 3154 3155 3158
3077 3155 3158 3159
3078 3156 3157 3160
3079 3157 3160 3161
3080 3158 3159 3162
3081 3159 3162 3163
3082 3160 3161 3164
3083 3161 3164 3165
3084 3162 3163 3166
3085 3163 3166 3167
3086 3164 3165 3168
3087 3165 3168 3169
3088 3166 3167 3170
3089 3167 3170 3171
3090 3168 3169 3172
3091 3169 3172 3173
3092 3170 3171 3174
3093 3171 3174 3175
3094 3172 3173 3176
3095 3173 3176 3177
3096 3174 3175 3178
3097 3175 3178 3179
3098 3176 3177 3180
3099 3177 3180 3181
3100 3178 3179 3182
3101 3179 3182 3183
3102 3180 3181 3184
3103 3181 3184 3185
3104 3182 3183 3186
3105 3183 3186 3187
3106 3184 3185 3188
3107 3185 3188 3189
3108 3186 3187 3190
3109 3187 3190 3191
3110 3188 3189 3192
3111 3189 3192 3193
3112 3190 3191 3194
3113 3191 3194 3195
3114 3192 3193 3196
3115 3193 3196 3197
3116 3194 3195 3198
3117 3195 3198 3199
3118 3196 3197 3200
3119 3197 3200
3120 3198 3199
